$*$$$$$$$$$$$$$$$$$$$$$$$$$$$$$$$$$$$$$$$$$$$$$$$$$$$$$$$$$$$$$$$$$
$*
$*                    Simcenter v12.0.2.9 Translator
$*                    for NX Nastran version 12.2
$*
$*             FEM FILE: C:\Users\hp\Desktop\fem1.fem
$*             SIM FILE: C:\Users\hp\Desktop\sim1.sim
$*        ANALYSIS TYPE: Structural
$*        SOLUTION NAME: Solution 1
$*        SOLUTION TYPE: SOL 101 Linear Statics - Global Constraints
$*
$*    SOLVER INPUT FILE: sim1-solution_1.dat
$*        CREATION DATE: 19-Nov-2018
$*        CREATION TIME: 00:28:56
$*             HOSTNAME: LAPTOP-SO1DP5ME
$*      NASTRAN LICENSE: Enterprise
$*
$*                UNITS: mm (milli-newton)
$*                      ... LENGTH : mm
$*                      ... TIME   : sec
$*                      ... MASS   : kilogram (kg)
$*                      ... TEMPERATURE : deg Celsius
$*                      ... FORCE  : milli-newton
$*                      ... THERMAL ENERGY : mN-mm (micro-joule)
$*
$* Важное замечание:
$*     Эта надпись сгенерирована в Simcenter и изменяет эти данные 
$*     информация может повлиять на обработку результатов в пре- и постпроцессоре
$*
$*$$$$$$$$$$$$$$$$$$$$$$$$$$$$$$$$$$$$$$$$$$$$$$$$$$$$$$$$$$$$$$$$$
$*
$*$$$$$$$$$$$$$$$$$$$$$$$$$$$$$$$$$$$
$*
$* FILE MANAGEMENT
$*
$*$$$$$$$$$$$$$$$$$$$$$$$$$$$$$$$$$$$
$*
$*
$*$$$$$$$$$$$$$$$$$$$$$$$$$$$$$$$$$$$
$*
$* EXECUTIVE CONTROL
$*
$*$$$$$$$$$$$$$$$$$$$$$$$$$$$$$$$$$$$
$*
ID,NASTRAN,sim1-solution_1
SOL 101
CEND
$*
$*$$$$$$$$$$$$$$$$$$$$$$$$$$$$$$$$$$$
$*
$* CASE CONTROL
$*
$*$$$$$$$$$$$$$$$$$$$$$$$$$$$$$$$$$$$
$*
ECHO = NONE
SPC = 1
OUTPUT
DISPLACEMENT(PLOT,REAL) = ALL
SPCFORCES(PLOT,REAL) = ALL
STRESS(PLOT,REAL,VONMISES,CENTER) = ALL
$*  Step: Subcase - Static Loads 1
SUBCASE 1
  LABEL = Subcase - Static Loads 1
  LOAD = 2
$*
$*$$$$$$$$$$$$$$$$$$$$$$$$$$$$$$$$$$$
$*
$* BULK DATA
$*
$*$$$$$$$$$$$$$$$$$$$$$$$$$$$$$$$$$$$
$*
BEGIN BULK
$*
$* PARAM CARDS
$*
PARAM      K6ROT100.0000
PARAM     OIBULK     YES
PARAM    OMACHPR     YES
PARAM       POST      -2
PARAM    POSTEXT     YES
PARAM    UNITSYS   MN-MM
$*
$* GRID CARDS
$*
GRID*                  1               01.3542914148E+00-1.207937690E+02+
*       -3.012250750E-01               0
GRID*                  2               02.0943896547E+00-1.196918280E+02+
*       -1.016456829E+00               0
GRID*                  3               01.3442903084E+00-1.196994109E+02+
*       -3.856272704E-02               0
GRID*                  4               02.4594805096E+00-1.200525509E+02+
*       -2.206367875E-01               0
GRID*                  5               03.3835387028E+00-1.195200043E+02+
*       -8.570965361E-01               0
GRID*                  6               03.2553587936E+00-1.209333706E+02+
*       7.6102121777E-02               0
GRID*                  7               03.7704693436E+00-1.194499466E+02+
*       1.8089361929E-01               0
GRID*                  8               01.8833233623E+00-1.207724597E+02+
*       1.1174788550E+00               0
GRID*                  9               02.4131440652E+00-1.188979698E+02+
*       7.8990380122E-01               0
GRID*                 10               02.9403996845E+00-1.199721175E+02+
*       1.1049826102E+00               0
GRID*                 11               0-1.179455971E+002.0736361416E+01+
*       1.2553812686E+00               0
GRID*                 12               0-2.713488675E+002.1190883855E+01+
*       1.3561541604E+00               0
GRID*                 13               0-1.922202385E+002.2056423449E+01+
*       1.1103936136E+00               0
GRID*                 14               0-2.552517447E+002.0617778350E+01+
*       3.0797039946E-01               0
GRID*                 15               0-2.254202044E+002.0860934272E+01+
*       -1.284107490E+00               0
GRID*                 16               0-3.114521934E+002.1169194216E+01+
*       -7.582313169E-01               0
GRID*                 17               0-3.011711251E+001.9702466105E+01+
*       -5.068805600E-01               0
GRID*                 18               0-2.161076732E+001.9563598134E+01+
*       2.1675672442E+00               0
GRID*                 19               0-4.259892740E+002.0018326335E+01+
*       -3.288931646E-01               0
GRID*                 20               0-3.938003034E+001.9618645301E+01+
*       3.5021194835E-01               0
GRID*                 21               0-3.242806972E+002.0051987348E+01+
*       2.3065605286E+00               0
GRID*                 22               0-4.342133222E+002.0433135686E+01+
*       6.6787844100E-01               0
GRID*                 23               0-3.216564715E+001.9307790637E+01+
*       1.2571159308E+00               0
GRID*                 24               04.9869324393E+002.0574120466E+01+
*       1.1131649666E+00               0
GRID*                 25               04.0312934884E+001.9718287854E+01+
*       2.0063750528E+00               0
GRID*                 26               04.3231404578E+002.1033048091E+01+
*       2.3691621687E+00               0
GRID*                 27               03.6519496228E+002.0603445546E+01+
*       1.4596265023E+00               0
GRID*                 28               04.1879153523E+002.0122144317E+01+
*       3.3602212215E-01               0
GRID*                 29               03.2104780501E+001.9683827345E+01+
*       9.6328139100E-01               0
GRID*                 30               03.7229067373E+002.1616308801E+01+
*       1.1198119805E+00               0
GRID*                 31               03.1172578377E+002.1193610022E+01+
*       2.0451547553E-01               0
GRID*                 32               03.0338433278E+002.1408857383E+01+
*       2.1097172271E+00               0
GRID*                 33               02.1829273616E+002.0755136640E+01+
*       1.0624009831E+00               0
GRID*                 34               0-2.779419016E+00-6.875992704E+01+
*       -1.281814959E+00               0
GRID*                 35               0-3.235589491E+00-7.022253963E+01+
*       1.7999575037E-01               0
GRID*                 36               0-8.103982267E-02-1.282120720E+02+
*       -1.320632546E+00               0
GRID*                 37               0-3.805832444E+00-7.157084235E+01+
*       1.0601065779E+00               0
GRID*                 38               0-3.183741408E+002.5501326149E+01+
*       2.5047443213E+00               0
GRID*                 39               0-3.072596085E+00-6.823558535E+01+
*       8.8829679283E-01               0
GRID*                 40               0-2.765168500E+00-7.158581152E+01+
*       -1.150393465E+00               0
GRID*                 41               0-1.943809893E+00-7.143839427E+01+
*       1.0895831954E+00               0
GRID*                 42               01.3202583352E-01-7.025087963E+01+
*       -3.030991263E-01               0
GRID*                 43               0-4.474675337E+002.5930558910E+01+
*       3.1744930358E+00               0
GRID*                 44               03.2299012524E+001.8796950582E+01+
*       -6.042581695E-01               0
GRID*                 45               02.0257132566E+001.9079959441E+01+
*       -1.018730785E+00               0
GRID*                 46               02.5803272660E+001.8764575148E+01+
*       6.0062568933E-01               0
GRID*                 47               02.6648711048E+001.9913110787E+01+
*       -1.289201340E-01               0
GRID*                 48               04.4881505418E+002.0382885740E+01+
*       -7.305476764E-01               0
GRID*                 49               01.8576041265E+002.0193471148E+01+
*       -1.461366035E+00               0
GRID*                 50               02.7370591543E+001.9855277418E+01+
*       -1.264984103E+00               0
GRID*                 51               02.4433445764E+002.0913864833E+01+
*       -1.371297981E+00               0
GRID*                 52               06.1696174807E+00-1.249051459E+02+
*       2.0863621075E+00               0
GRID*                 53               03.5352873359E+001.9477028811E+01+
*       -3.635844292E-01               0
GRID*                 54               0-1.331846077E+002.1876486183E+01+
*       4.7941565459E-01               0
GRID*                 55               05.7783106692E+00-1.265094132E+02+
*       -1.987206851E+00               0
GRID*                 56               0-6.720895870E-012.1809761158E+01+
*       1.1168344262E+00               0
GRID*                 57               05.9461318414E+00-1.271040189E+02+
*       2.1922101734E+00               0
GRID*                 58               0-2.638589191E+002.2190486534E+01+
*       5.0478156666E-01               0
GRID*                 59               0-2.614412072E+002.3099885793E+01+
*       1.9819009437E+00               0
GRID*                 60               0-1.227118108E+002.1828350028E+01+
*       2.0168968821E+00               0
GRID*                 61               0-1.499581774E+00-1.311426310E+02+
*       -1.890001484E+00               0
GRID*                 62               0-1.996341091E-01-1.307344725E+02+
*       -1.631514665E+00               0
GRID*                 63               0-2.004784741E+001.8470239242E+01+
*       -1.431507618E-01               0
GRID*                 64               0-2.720391111E+001.8469336651E+01+
*       3.0995503878E-01               0
GRID*                 65               0-1.839680966E+001.9462587403E+01+
*       1.8726791376E-02               0
GRID*                 66               0-1.754269077E+001.9491563168E+01+
*       1.0288334403E+00               0
GRID*                 67               0-5.152376003E+00-1.231634207E+02+
*       2.5093986093E+00               0
GRID*                 68               0-5.943896716E+00-1.223922590E+02+
*       1.8628988356E+00               0
GRID*                 69               0-5.707210934E+00-1.236181272E+02+
*       -1.685788065E-01               0
GRID*                 70               0-6.196891678E+00-1.243524148E+02+
*       1.4801160438E+00               0
GRID*                 71               0-1.392804093E+002.0685679384E+01+
*       -3.059327666E-01               0
GRID*                 72               0-9.631621211E-011.9437079431E+01+
*       5.3953925616E-01               0
GRID*                 73               0-2.198687485E+001.9731695011E+01+
*       -1.049625642E+00               0
GRID*                 74               0-2.478960313E+00-1.224708004E+02+
*       1.8842322260E+00               0
GRID*                 75               0-2.807717572E+00-1.232449458E+02+
*       2.1085082826E+00               0
GRID*                 76               0-3.513382223E+00-1.218412661E+02+
*       2.0823769980E+00               0
GRID*                 77               0-3.550903931E+00-1.227699280E+02+
*       8.7865320324E-01               0
GRID*                 78               0-2.595475045E+00-1.225739631E+02+
*       2.0852844834E-01               0
GRID*                 79               0-2.799569366E+00-1.234619950E+02+
*       1.3702410475E+00               0
GRID*                 80               0-5.003887594E+00-1.219886561E+02+
*       5.6392725850E-01               0
GRID*                 81               0-4.289618673E+00-1.237935636E+02+
*       1.5710719551E+00               0
GRID*                 82               0-3.609187113E+00-1.238418449E+02+
*       -1.734855003E-02               0
GRID*                 83               0-2.639837700E+00-1.269380188E+02+
*       9.3657591584E-01               0
GRID*                 84               0-2.045899221E+00-1.276807005E+02+
*       2.0374353315E+00               0
GRID*                 85               0-3.325202909E+00-1.281850575E+02+
*       1.7801806593E+00               0
GRID*                 86               0-2.521930492E+00-1.288814558E+02+
*       1.5833396760E+00               0
GRID*                 87               0-1.677710902E+00-1.278787716E+02+
*       1.1690456440E+00               0
GRID*                 88               0-1.796981915E+00-1.294993213E+02+
*       1.1117243572E+00               0
GRID*                 89               0-7.355309670E-01-1.283275331E+02+
*       2.0738232908E+00               0
GRID*                 90               0-4.425695583E+00-1.294893977E+02+
*       2.0617494687E+00               0
GRID*                 91               0-3.281788017E+00-1.299876981E+02+
*       1.2964957733E-01               0
GRID*                 92               0-4.829707580E+00-1.285021877E+02+
*       1.1369678717E+00               0
GRID*                 93               0-2.535777131E+00-1.281719455E+02+
*       -3.235611912E-02               0
GRID*                 94               0-3.141463541E+00-1.237470904E+02+
*       3.2752255714E+00               0
GRID*                 95               0-2.436157848E+00-1.290024978E+02+
*       3.1253511566E+00               0
GRID*                 96               0-3.559047291E+00-1.302502586E+02+
*       2.2294460078E+00               0
GRID*                 97               0-2.822250387E+00-1.305071740E+02+
*       2.2199445435E+00               0
GRID*                 98               03.9572688689E+00-1.194473643E+02+
*       -2.001116394E+00               0
GRID*                 99               0-1.046900679E+00-1.193869887E+02+
*       -2.330719902E+00               0
GRID*                100               0-5.307624168E-01-1.203063321E+02+
*       -8.474315522E-01               0
GRID*                101               03.7447118750E-01-1.192129272E+02+
*       -2.319493810E+00               0
GRID*                102               0-4.608091455E-01-1.191103695E+02+
*       -8.877698356E-01               0
GRID*                103               02.8114107732E-01-1.175927788E+02+
*       -1.620773639E+00               0
GRID*                104               01.0623977552E+00-1.173740003E+02+
*       -6.738889560E-01               0
GRID*                105               0-2.661164639E-01-1.164821313E+02+
*       -6.961940131E-01               0
GRID*                106               03.0804928106E-01-1.176277427E+02+
*       3.4051763775E-01               0
GRID*                107               0-3.607840702E-01-1.179995597E+02+
*       5.0620124425E-01               0
GRID*                108               05.3862246488E-01-1.186462758E+02+
*       -6.081970391E-01               0
GRID*                109               0-3.783252112E-01-1.196593720E+02+
*       4.6043392643E-01               0
GRID*                110               07.5181663680E-01-1.204655315E+02+
*       -1.186045626E+00               0
GRID*                111               02.2573535313E+003.0238889847E+01+
*       2.4276030288E+00               0
GRID*                112               03.7746474018E-013.0565457430E+01+
*       2.5928915646E+00               0
GRID*                113               01.4484769943E+003.1213644933E+01+
*       1.6364720897E+00               0
GRID*                114               0-3.002069113E+00-1.237373300E+02+
*       -2.141289340E+00               0
GRID*                115               0-3.382264832E+00-1.251324345E+02+
*       -2.165182132E+00               0
GRID*                116               0-4.692702380E+00-1.241871055E+02+
*       -3.048594447E+00               0
GRID*                117               0-3.344111918E+00-1.239041348E+02+
*       -3.137203531E+00               0
GRID*                118               0-1.057289132E+00-1.189763409E+02+
*       8.3722509130E-02               0
GRID*                119               0-1.158045025E+00-1.202582138E+02+
*       -2.725303961E-01               0
GRID*                120               0-1.807384813E+00-1.197101216E+02+
*       -1.226586864E+00               0
GRID*                121               0-4.460381480E+00-1.207375522E+02+
*       -2.315588408E+00               0
GRID*                122               0-4.183164337E+00-1.195087147E+02+
*       -2.078393570E+00               0
GRID*                123               03.9564317653E+00-1.356077991E+01+
*       -1.006732272E+00               0
GRID*                124               0-3.127247264E+00-1.201588550E+02+
*       -2.380637531E+00               0
GRID*                125               0-3.949749259E+00-1.205742443E+02+
*       -1.141617969E+00               0
GRID*                126               08.9054032221E-022.1413188045E+01+
*       3.3547277468E+00               0
GRID*                127               0-2.557150294E+00-1.188166828E+02+
*       -2.079786166E+00               0
GRID*                128               0-3.353576746E+00-1.195234922E+02+
*       -8.422146037E-01               0
GRID*                129               0-3.146822721E+002.6661535089E+01+
*       2.2071704077E+00               0
GRID*                130               0-3.764992302E+002.7587645174E+01+
*       3.2411628668E+00               0
GRID*                131               0-2.466018837E+002.7412521714E+01+
*       2.9520260403E+00               0
GRID*                132               0-3.259807113E+002.8127905926E+01+
*       1.7042411283E+00               0
GRID*                133               03.9325099418E+00-1.854156224E+01+
*       1.0253365325E+00               0
GRID*                134               03.6309704502E+00-1.232675405E+02+
*       -3.261454532E+00               0
GRID*                135               0-3.993227062E+00-1.183936451E+02+
*       -1.161484077E+00               0
GRID*                136               03.1360559245E+00-1.244043447E+02+
*       -2.457508449E+00               0
GRID*                137               0-6.019624557E+002.7134867819E+01+
*       2.4076136376E+00               0
GRID*                138               04.7645385260E+00-1.257440451E+02+
*       -3.234282623E+00               0
GRID*                139               03.7438447766E+00-1.251235962E+02+
*       -3.414118829E+00               0
GRID*                140               0-4.408049044E+002.4415329133E+01+
*       -3.110993283E+00               0
GRID*                141               0-3.330060426E+002.6124108587E+01+
*       3.3175236299E+00               0
GRID*                142               0-4.724723545E+00-1.204552408E+02+
*       1.0650799790E+00               0
GRID*                143               0-3.955047926E+00-1.192653788E+02+
*       6.2418139549E-01               0
GRID*                144               0-3.689986670E+00-1.202634450E+02+
*       1.1651406681E+00               0
GRID*                145               02.4432102239E+00-1.451254861E+01+
*       -1.124312010E+00               0
GRID*                146               03.4541602691E+00-1.552857638E+01+
*       7.0273033326E-01               0
GRID*                147               0-2.928764536E+00-1.206266954E+02+
*       -1.072522118E-01               0
GRID*                148               0-3.868505369E+00-1.216314272E+02+
*       5.7998079443E-01               0
GRID*                149               0-2.751342825E+00-1.211984219E+02+
*       1.2605087181E+00               0
GRID*                150               0-3.108754829E+00-1.199152311E+02+
*       2.4215670712E+00               0
GRID*                151               0-4.709670751E+00-1.201106773E+02+
*       2.0729516657E+00               0
GRID*                152               0-3.476496841E+00-1.185410345E+02+
*       1.6093467746E+00               0
GRID*                153               0-3.157623031E+002.5089908207E+01+
*       -1.038535841E+00               0
GRID*                154               0-3.675581960E+002.4102701069E+01+
*       -1.630866646E+00               0
GRID*                155               0-5.340899464E+002.2210804487E+01+
*       -2.023712690E+00               0
GRID*                156               0-4.284577030E+002.1195721180E+01+
*       -2.397262317E+00               0
GRID*                157               0-3.733851915E+002.2758906863E+01+
*       -3.279072281E+00               0
GRID*                158               01.8142142218E+00-1.220320487E+02+
*       -2.599722007E-01               0
GRID*                159               02.4558466367E+00-1.223839060E+02+
*       5.1390930289E-01               0
GRID*                160               03.6348171425E+00-1.216663141E+02+
*       -6.902774929E-01               0
GRID*                161               02.7361122075E+00-1.212643038E+02+
*       -1.428683776E+00               0
GRID*                162               04.0151639534E+00-1.217451836E+02+
*       1.0052609647E+00               0
GRID*                163               03.1441571478E+00-1.229841347E+02+
*       -2.918957179E-03               0
GRID*                164               04.0793724771E+00-1.209277498E+02+
*       -2.136670407E+00               0
GRID*                165               04.0085221514E+00-1.224207114E+02+
*       -1.334897366E+00               0
GRID*                166               05.0975915901E+00-1.216842041E+02+
*       -1.544007541E-01               0
GRID*                167               04.2108844547E+00-1.202351046E+02+
*       -1.107041082E+00               0
GRID*                168               04.8446505051E+00-1.220021744E+02+
*       -2.567335332E+00               0
GRID*                169               02.8132262159E+00-1.740257168E+01+
*       1.0593840378E+00               0
GRID*                170               03.6364737093E+00-1.261341025E+02+
*       -2.597918915E+00               0
GRID*                171               0-3.840043806E+002.4413525563E+01+
*       3.2332684146E+00               0
GRID*                172               04.7187257394E+00-1.244321933E+02+
*       -3.147911538E+00               0
GRID*                173               04.7883771989E+00-1.249986735E+02+
*       -1.944461353E+00               0
GRID*                174               03.1932272908E+002.6897897964E+01+
*       1.8631196237E+00               0
GRID*                175               04.9662132242E+00-1.215992628E+02+
*       1.8862133203E+00               0
GRID*                176               04.2085682033E+00-1.204702078E+02+
*       1.0280943455E+00               0
GRID*                177               0-3.032510165E+002.6721327655E+01+
*       -7.067397579E-01               0
GRID*                178               0-2.386023641E+002.7406838013E+01+
*       -1.971721629E+00               0
GRID*                179               0-3.183827395E+002.6031520677E+01+
*       -1.930002510E+00               0
GRID*                180               0-4.050775365E+002.7403921083E+01+
*       -1.471825527E+00               0
GRID*                181               0-4.263688736E+002.5638343165E+01+
*       -3.379509398E+00               0
GRID*                182               02.6399795961E+00-1.211713549E+02+
*       1.3976851450E+00               0
GRID*                183               04.0778484600E+00-1.229504684E+02+
*       1.4976696893E+00               0
GRID*                184               02.7354099025E+00-1.224060480E+02+
*       1.9204393424E+00               0
GRID*                185               03.5342438633E+00-1.217050622E+02+
*       2.3051628444E+00               0
GRID*                186               0-2.674964656E+00-1.212352191E+02+
*       3.0660867291E+00               0
GRID*                187               0-2.299723568E+00-1.223730350E+02+
*       3.2438244510E+00               0
GRID*                188               02.7218083830E+00-5.328873827E+01+
*       -1.155688284E+00               0
GRID*                189               03.9565404203E+00-5.455377755E+01+
*       -1.390556708E-01               0
GRID*                190               0-1.018731704E+002.8167836916E+01+
*       3.0638959566E+00               0
GRID*                191               02.4523481636E+00-5.677841255E+01+
*       -8.615227504E-01               0
GRID*                192               03.0104807689E+00-1.930462244E+01+
*       1.3096181206E+00               0
GRID*                193               03.9044080332E+00-5.298958421E+01+
*       8.8436332629E-02               0
GRID*                194               02.1340375861E+00-5.372720381E+01+
*       1.2258571620E+00               0
GRID*                195               0-2.499518094E+002.2645446556E+01+
*       -2.706970941E+00               0
GRID*                196               02.6063992143E+00-7.172102575E+01+
*       -1.114744459E+00               0
GRID*                197               02.7768250250E+00-1.216420845E+01+
*       1.0358222033E+00               0
GRID*                198               02.2911970572E+00-1.044198916E+01+
*       -1.187319743E+00               0
GRID*                199               02.5704477194E+00-1.053833167E+01+
*       1.0336201099E+00               0
GRID*                200               03.8734610173E+00-1.153002433E+01+
*       -1.134056966E-01               0
GRID*                201               0-6.179937237E-01-1.182470224E+02+
*       -2.074573989E+00               0
GRID*                202               06.2485664826E+00-1.250679937E+02+
*       -1.920499785E+00               0
GRID*                203               02.4534045495E+00-7.166314940E+01+
*       9.5808942733E-01               0
GRID*                204               03.7691403942E+00-7.225365929E+01+
*       1.1840835388E+00               0
GRID*                205               05.1485983191E+002.2801377341E+01+
*       2.4660448645E+00               0
GRID*                206               03.8478911826E+002.2616638014E+01+
*       3.1531211750E+00               0
GRID*                207               04.5573344601E+002.4143327633E+01+
*       3.2652264127E+00               0
GRID*                208               02.8722753482E+00-1.228739696E+02+
*       -1.913875515E+00               0
GRID*                209               03.4257228203E+00-6.997165175E+01+
*       1.0315580495E+00               0
GRID*                210               03.8067108629E+00-7.430979379E+01+
*       5.5036988867E-01               0
GRID*                211               02.1074140265E+00-7.369870708E+01+
*       1.1622269537E+00               0
GRID*                212               03.3045434004E+00-1.261375551E+02+
*       -1.039896859E+00               0
GRID*                213               03.7960702578E+00-1.255988111E+02+
*       7.7767444958E-02               0
GRID*                214               0-2.224651006E+00-1.197186919E+02+
*       1.9141393662E+00               0
GRID*                215               0-2.229483125E+00-1.187354185E+02+
*       9.0370790519E-01               0
GRID*                216               0-1.353638692E+00-1.194769659E+02+
*       2.1528410687E+00               0
GRID*                217               0-2.009598539E+00-1.196493940E+02+
*       1.7270338998E-01               0
GRID*                218               01.8570026726E+00-1.235777274E+01+
*       -1.294825732E+00               0
GRID*                219               03.0052209109E+00-1.361469128E+01+
*       1.0251854604E+00               0
GRID*                220               0-2.758811305E+00-1.196166740E+02+
*       1.1935970924E+00               0
GRID*                221               0-3.068747860E+00-1.186123700E+02+
*       -3.586031637E-01               0
GRID*                222               0-4.111965433E+00-1.209093974E+02+
*       2.4966944158E+00               0
GRID*                223               0-3.515533161E+00-1.022408577E+02+
*       -1.068998626E+00               0
GRID*                224               0-7.339599193E-01-1.205129613E+02+
*       1.2315341611E+00               0
GRID*                225               0-2.480080276E+002.2635028387E+01+
*       3.1366627604E+00               0
GRID*                226               0-1.847814353E+002.0458557402E+01+
*       3.0288317125E+00               0
GRID*                227               0-4.082894654E+002.2866874999E+01+
*       3.0791809339E+00               0
GRID*                228               03.7619165198E+00-6.644790085E+00+
*       -1.051089345E+00               0
GRID*                229               03.7589101357E+00-8.393097666E+00+
*       -1.052622317E+00               0
GRID*                230               02.6761185904E+00-8.737881397E+00+
*       8.7378402162E-01               0
GRID*                231               04.0181068796E+00-8.054949144E+00+
*       8.6819914691E-01               0
GRID*                232               0-1.300053500E+002.1716578923E+01+
*       3.3185898298E+00               0
GRID*                233               02.5261932682E+00-1.126674571E+02+
*       -1.081733381E+00               0
GRID*                234               03.9983869747E+00-1.001477202E+01+
*       -5.125620135E-01               0
GRID*                235               0-3.767448152E+00-1.225135541E+02+
*       2.9345015504E+00               0
GRID*                236               0-1.774086696E+00-1.221300268E+02+
*       -6.723687733E-01               0
GRID*                237               0-2.322237186E+00-1.209832082E+02+
*       -1.323377126E+00               0
GRID*                238               0-3.448396210E+00-1.222783873E+02+
*       -5.690760194E-01               0
GRID*                239               02.8883005642E+00-1.302151740E+02+
*       2.1611854696E+00               0
GRID*                240               03.1906785995E+00-1.299950247E+02+
*       -1.986105730E-01               0
GRID*                241               01.6555772409E+00-1.309586507E+02+
*       3.5320108557E-02               0
GRID*                242               02.1528620010E+00-1.290565780E+02+
*       1.6440129223E+00               0
GRID*                243               0-2.505579698E+00-1.272714777E+02+
*       -2.717993501E+00               0
GRID*                244               0-2.967049337E+00-1.267142800E+02+
*       -1.854727757E+00               0
GRID*                245               0-3.337295922E+00-1.261711391E+02+
*       -3.306064717E+00               0
GRID*                246               0-2.240487796E+00-1.293205321E+02+
*       -3.122745826E+00               0
GRID*                247               0-1.721835585E+00-1.277897749E+02+
*       -2.308467672E+00               0
GRID*                248               0-1.230173428E+00-1.282383475E+02+
*       -3.313242141E+00               0
GRID*                249               01.3099126909E+00-1.280032964E+02+
*       1.0097480056E+00               0
GRID*                250               06.3513560751E-01-1.288295903E+02+
*       -1.568399615E-01               0
GRID*                251               0-3.744305144E+00-1.277645497E+02+
*       -3.193184758E+00               0
GRID*                252               02.8580186435E+00-3.624233154E+00+
*       -1.151826078E+00               0
GRID*                253               01.4441563910E+00-1.309798637E+02+
*       1.8956081241E+00               0
GRID*                254               0-3.647685371E-02-1.302395567E+02+
*       2.7132544776E+00               0
GRID*                255               02.5467729988E+00-1.229095316E+02+
*       -1.080157734E+00               0
GRID*                256               01.3442992712E+00-1.217131901E+02+
*       -1.973117614E+00               0
GRID*                257               01.7906694841E+00-1.204858791E+02+
*       -3.016597013E+00               0
GRID*                258               01.6565431229E+00-1.214416684E+02+
*       -3.424064718E+00               0
GRID*                259               07.3524932950E-01-1.209941021E+02+
*       -2.302189008E+00               0
GRID*                260               02.1835768547E+003.0551725177E+01+
*       -7.642067611E-01               0
GRID*                261               03.0072413024E+00-1.706140395E+01+
*       -8.952039148E-01               0
GRID*                262               0-1.234910740E+003.1078891986E+01+
*       -2.113725702E+00               0
GRID*                263               06.0697386815E+002.6128032005E+01+
*       -2.082557681E+00               0
GRID*                264               02.9788622017E+00-1.141929222E+02+
*       8.5537413468E-01               0
GRID*                265               01.3613033645E+00-1.141421759E+02+
*       -7.768738285E-01               0
GRID*                266               01.4672204518E+00-1.151145279E+02+
*       1.0481460088E+00               0
GRID*                267               02.7319850986E+00-1.126313934E+02+
*       1.1069951047E+00               0
GRID*                268               03.8173393938E+00-2.149488084E+01+
*       6.7071574412E-01               0
GRID*                269               03.2799720484E+002.0024668913E+01+
*       2.3925568201E+00               0
GRID*                270               02.8173603998E+00-1.103339486E+02+
*       -2.797604643E-01               0
GRID*                271               0-2.332127387E+001.7846146255E+01+
*       1.4445818683E+00               0
GRID*                272               0-2.170579424E+001.6771924864E+01+
*       5.6275086881E-01               0
GRID*                273               0-2.683613536E+001.8833437676E+01+
*       -1.739069801E+00               0
GRID*                274               0-2.446201257E+001.7472153169E+01+
*       -1.450812205E+00               0
GRID*                275               02.6695239195E+00-1.270034225E+02+
*       1.1391092562E+00               0
GRID*                276               03.0270517364E+00-1.262427818E+02+
*       2.1046711323E+00               0
GRID*                277               0-3.747305696E+001.8544673660E+01+
*       -3.742033531E-01               0
GRID*                278               0-3.994508669E+001.7511381542E+01+
*       7.5203995749E-01               0
GRID*                279               0-1.260097655E+001.7120420879E+01+
*       -1.210500027E+00               0
GRID*                280               03.8924234972E+00-4.668760112E+01+
*       -1.053010272E+00               0
GRID*                281               0-3.003676461E+002.1618920984E+01+
*       -3.232820755E+00               0
GRID*                282               02.6023187779E+00-1.187205399E+02+
*       2.0579218511E+00               0
GRID*                283               01.9582632665E+00-1.194210621E+02+
*       1.8663425555E+00               0
GRID*                284               01.1575138824E+00-1.183711341E+02+
*       1.6125985954E+00               0
GRID*                285               01.4785951088E-01-1.208193639E+02+
*       4.0791200287E-01               0
GRID*                286               07.9849060292E-01-1.200938321E+02+
*       1.4180866866E+00               0
GRID*                287               01.3241400333E+002.1716653469E+01+
*       -5.575950064E-01               0
GRID*                288               01.2589342580E+002.0460331044E+01+
*       3.0446245207E-02               0
GRID*                289               07.0639818172E-022.1445756744E+01+
*       3.4459101610E-01               0
GRID*                290               0-3.082332851E-032.0098428335E+01+
*       -2.418369211E-01               0
GRID*                291               0-3.249649333E+002.6349596428E+01+
*       -3.499833191E+00               0
GRID*                292               0-5.924506764E+002.3126239916E+01+
*       2.0261364012E+00               0
GRID*                293               0-5.850883464E+002.4136827324E+01+
*       4.3197779472E-01               0
GRID*                294               0-4.512345484E+002.4786617284E+01+
*       2.0255501259E+00               0
GRID*                295               0-4.207354266E+002.3256732688E+01+
*       1.4146854943E+00               0
GRID*                296               02.2984107289E+00-1.188561566E+02+
*       -4.539334370E-01               0
GRID*                297               0-3.527180537E+00-1.120743551E+02+
*       9.8821420154E-01               0
GRID*                298               0-3.647676930E+00-1.097959438E+02+
*       7.9692318489E-01               0
GRID*                299               0-3.314165138E+00-3.960073702E+01+
*       1.1298352043E+00               0
GRID*                300               0-2.809374986E+00-3.793280244E+01+
*       -1.291833729E+00               0
GRID*                301               0-2.650165634E+00-3.748592777E+01+
*       9.7704062660E-01               0
GRID*                302               0-1.723819026E+00-1.102290261E+02+
*       -8.480724370E-01               0
GRID*                303               0-2.992670685E+00-1.080276311E+02+
*       -2.376308623E-01               0
GRID*                304               0-3.546078372E+00-1.099391004E+02+
*       -9.941087405E-01               0
GRID*                305               0-1.195654749E+002.0079526949E+01+
*       -1.285534055E+00               0
GRID*                306               0-9.728310906E-011.8651349047E+01+
*       -7.406411323E-01               0
GRID*                307               0-1.099609717E-011.7024677614E+01+
*       1.7477075004E+00               0
GRID*                308               0-1.391846304E+001.8520278934E+01+
*       1.8224820366E+00               0
GRID*                309               0-5.428364853E-011.7622175043E+01+
*       1.3798351424E+00               0
GRID*                310               0-1.352900849E+001.7997988547E+01+
*       6.1186128947E-01               0
GRID*                311               03.1762676711E+00-2.080304877E+00+
*       1.0907400695E+00               0
GRID*                312               03.8498170933E-011.9009806533E+01+
*       9.4630841827E-01               0
GRID*                313               0-1.015126504E-031.7644428679E+01+
*       -1.362626373E-02               0
GRID*                314               02.9351913457E+00-1.272206777E+02+
*       -2.963145775E+00               0
GRID*                315               08.0250950652E-011.9175270373E+01+
*       -6.620148286E-01               0
GRID*                316               03.9868082236E+001.0877672815E+01+
*       6.9408872105E-01               0
GRID*                317               0-2.031903630E+00-4.340096180E+01+
*       -1.195706593E+00               0
GRID*                318               0-1.627921858E+00-4.325293703E+01+
*       1.2224336476E+00               0
GRID*                319               0-2.396551596E+00-4.158866684E+01+
*       6.7872057742E-01               0
GRID*                320               0-3.727873801E+00-4.301909365E+01+
*       -1.302685798E+00               0
GRID*                321               0-3.823749014E+00-4.148414617E+01+
*       -7.399960458E-01               0
GRID*                322               03.6304119391E+00-1.179916585E+02+
*       -1.315769290E+00               0
GRID*                323               02.3827093527E+00-1.187363086E+02+
*       -1.752270257E+00               0
GRID*                324               03.0993705985E+00-1.201447644E+02+
*       -2.351282134E+00               0
GRID*                325               0-2.554851049E+00-7.953721860E+01+
*       1.2051163538E+00               0
GRID*                326               0-2.697716572E+00-7.687001812E+01+
*       1.1748155943E+00               0
GRID*                327               02.8942148349E+00-2.591653409E+01+
*       -1.255792165E+00               0
GRID*                328               01.5602337577E-01-2.510428048E+01+
*       -1.809943917E-01               0
GRID*                329               03.8620411411E+001.5677689694E+01+
*       1.0235009278E+00               0
GRID*                330               04.1165983041E+001.7284449604E+01+
*       1.0297638502E+00               0
GRID*                331               03.7541986193E+002.2517866006E+01+
*       -3.336584745E+00               0
GRID*                332               0-3.811864896E+00-7.833954072E+01+
*       -2.457361686E-01               0
GRID*                333               0-8.263953798E-01-8.244610593E+01+
*       -1.400645498E+00               0
GRID*                334               0-1.095010416E+00-8.010658899E+01+
*       -1.215446188E+00               0
GRID*                335               0-2.242445207E+00-8.166367314E+01+
*       1.2891496005E+00               0
GRID*                336               0-2.533449203E-01-8.254742249E+01+
*       1.0376904344E+00               0
GRID*                337               0-2.556514846E+00-8.583317068E+01+
*       -1.307690983E+00               0
GRID*                338               0-2.088140591E-01-8.694689488E+01+
*       1.6184676558E-02               0
GRID*                339               03.4606799000E+00-1.019092914E+02+
*       -1.083575158E+00               0
GRID*                340               04.0415306780E+00-1.030793135E+02+
*       -3.233056234E-01               0
GRID*                341               04.7497665870E-02-8.915120285E+01+
*       -9.187253978E-02               0
GRID*                342               03.8057904621E+00-1.049132400E+02+
*       7.6493143172E-01               0
GRID*                343               03.0567232145E+00-1.022932388E+02+
*       1.2125375719E+00               0
GRID*                344               01.4053600414E+00-8.372667898E+01+
*       -1.361015238E+00               0
GRID*                345               03.8024726961E+00-8.254968445E+01+
*       -9.096683297E-01               0
GRID*                346               03.8831421335E-01-1.094453542E+02+
*       -5.430473672E-01               0
GRID*                347               02.2113710536E+00-1.176162885E+02+
*       -1.591066104E+00               0
GRID*                348               02.4363142298E+00-1.171443920E+02+
*       -5.801253257E-01               0
GRID*                349               01.6757255500E+00-1.031097586E+02+
*       -7.333458394E-01               0
GRID*                350               0-4.033061564E+001.7364039142E+01+
*       -1.374702609E+00               0
GRID*                351               03.8784039037E+009.6383547104E+00+
*       -9.030715215E-01               0
GRID*                352               0-4.091603324E+001.8776491602E+01+
*       -1.477092459E+00               0
GRID*                353               0-3.922695099E+001.8506207243E+01+
*       1.2808900459E+00               0
GRID*                354               01.7815133175E+00-5.143865887E+00+
*       -1.041978235E+00               0
GRID*                355               0-4.499107870E+00-1.202892355E+02+
*       -4.534923464E-01               0
GRID*                356               0-3.315954430E+00-1.244393500E+02+
*       1.0916128696E+00               0
GRID*                357               0-3.994672755E+00-1.252858819E+02+
*       3.3017135798E-01               0
GRID*                358               0-4.666939239E+00-1.249196946E+02+
*       1.6231979923E+00               0
GRID*                359               0-2.265382296E-01-3.841840478E+01+
*       -3.192984735E-02               0
GRID*                360               0-4.712632114E+00-1.218865777E+02+
*       2.4994754072E+00               0
GRID*                361               0-1.442197386E+003.1167990541E+01+
*       2.0131459772E+00               0
GRID*                362               0-2.554747079E+00-1.270443215E+02+
*       -1.161802684E+00               0
GRID*                363               0-3.435403549E+00-1.283657925E+02+
*       -1.459608670E+00               0
GRID*                364               0-2.162589874E+00-1.289997791E+02+
*       -1.210198769E+00               0
GRID*                365               0-1.670613642E+00-1.297955218E+02+
*       -2.130531140E+00               0
GRID*                366               0-8.479298681E-01-1.286326869E+02+
*       -2.229327232E+00               0
GRID*                367               0-6.166536426E+00-1.249725160E+02+
*       -2.122482470E+00               0
GRID*                368               09.9720113011E-013.0514734776E+01+
*       -2.220557236E+00               0
GRID*                369               03.3743297864E-013.0860482835E+01+
*       -1.006018829E-01               0
GRID*                370               03.9051762394E-012.8801197003E+01+
*       -1.784445079E+00               0
GRID*                371               03.5519086039E+00-3.988976101E+01+
*       -1.356760657E+00               0
GRID*                372               02.5964939317E+002.7503595680E+01+
*       -1.103668371E+00               0
GRID*                373               03.7199823116E+002.8072223883E+01+
*       -1.210194450E+00               0
GRID*                374               02.2929832333E+002.7265585379E+01+
*       -2.032407529E+00               0
GRID*                375               02.0156485555E+002.8935523545E+01+
*       -1.761070952E+00               0
GRID*                376               03.9567530370E+00-9.008898623E+01+
*       9.9523134219E-01               0
GRID*                377               01.6703897220E+002.8128469696E+01+
*       -2.860078574E+00               0
GRID*                378               09.2925189597E-012.9562211208E+01+
*       -3.035176124E+00               0
GRID*                379               03.1406506530E+002.9822314105E+01+
*       -2.540135193E+00               0
GRID*                380               03.5043777447E+002.9307931985E+01+
*       -6.655898482E-01               0
GRID*                381               02.9242524597E+002.8712466365E+01+
*       -3.227575001E+00               0
GRID*                382               0-1.621795906E+002.7802611056E+01+
*       2.1677158554E+00               0
GRID*                383               0-8.750952023E-012.8723074850E+01+
*       6.6115762779E-02               0
GRID*                384               0-1.641194865E+002.7853453152E+01+
*       -1.023693249E+00               0
GRID*                385               0-2.421376670E+002.8352611903E+01+
*       1.0759653414E-01               0
GRID*                386               0-1.906938487E+00-1.221804600E+02+
*       1.0465893038E+00               0
GRID*                387               0-1.887639876E+00-1.206003635E+02+
*       7.7985837411E-01               0
GRID*                388               03.3670673042E-012.1623096391E+01+
*       2.0436728336E+00               0
GRID*                389               01.7442455076E+002.1839304243E+01+
*       2.1059518141E+00               0
GRID*                390               01.0367360245E+002.0467381460E+01+
*       3.1659334103E+00               0
GRID*                391               01.2765043028E+002.0048331959E+01+
*       1.5049250348E+00               0
GRID*                392               02.3981967167E+001.8740241544E+01+
*       -1.902692347E+00               0
GRID*                393               01.1407812958E+001.8259593905E+01+
*       -1.912965858E+00               0
GRID*                394               02.3882347430E+001.7773491675E+01+
*       -1.777358210E+00               0
GRID*                395               0-3.051910709E+002.3188960612E+01+
*       -1.772875105E+00               0
GRID*                396               03.4147654539E-01-1.203074354E+02+
*       3.1229564175E+00               0
GRID*                397               0-7.754917418E-02-1.191444515E+02+
*       2.1862807954E+00               0
GRID*                398               0-1.347190442E+00-1.217504992E+02+
*       3.3274698494E-01               0
GRID*                399               0-5.207449303E+00-1.218468743E+02+
*       -2.306786475E+00               0
GRID*                400               05.9971798147E+00-1.239704648E+02+
*       -6.420617841E-01               0
GRID*                401               04.9381540049E+00-1.250783509E+02+
*       1.3201864182E+00               0
GRID*                402               05.6937153441E+00-1.231288570E+02+
*       7.9594618423E-01               0
GRID*                403               04.4070410500E-011.8172050877E+01+
*       1.9270997837E+00               0
GRID*                404               04.8926024389E+00-1.243919690E+02+
*       1.8472026589E+00               0
GRID*                405               02.3348427454E+002.1285480688E+01+
*       3.4282178684E+00               0
GRID*                406               03.9013922159E+00-2.467235120E+01+
*       -9.861146807E-01               0
GRID*                407               05.9795235251E+00-1.230611419E+02+
*       2.2376257895E+00               0
GRID*                408               04.7606868342E+00-1.229142875E+02+
*       -8.809361955E-01               0
GRID*                409               03.0177206000E+00-2.369697631E+01+
*       -1.075523261E+00               0
GRID*                410               03.0168099815E+00-2.551717362E+01+
*       1.0230292895E+00               0
GRID*                411               04.0557886317E+00-1.241593481E+02+
*       1.6906170975E-01               0
GRID*                412               0-1.409061166E+002.7891442574E+01+
*       1.0339103618E+00               0
GRID*                413               0-2.450289941E+002.9830097531E+01+
*       1.1095920947E+00               0
GRID*                414               01.2511192833E+00-1.220987967E+02+
*       8.1399564177E-01               0
GRID*                415               02.9239551500E+00-9.465560018E+01+
*       7.8232483109E-01               0
GRID*                416               06.3201306609E-01-1.217369947E+02+
*       -7.666913003E-01               0
GRID*                417               01.2855392384E+00-1.283711734E+02+
*       2.9276145991E+00               0
GRID*                418               05.6659089332E-01-1.217588458E+02+
*       1.9128447339E+00               0
GRID*                419               0-3.923023498E+001.1516281422E+01+
*       8.9818361183E-01               0
GRID*                420               0-3.409757716E-01-1.215612997E+02+
*       -3.302629795E-01               0
GRID*                421               0-4.526998583E-01-1.217629431E+02+
*       1.1308382229E+00               0
GRID*                422               0-3.423785169E+007.4307134246E+00+
*       -1.017962158E+00               0
GRID*                423               0-3.935517143E+009.2299314166E+00+
*       1.0400131658E+00               0
GRID*                424               0-3.873206260E+007.1998395781E+00+
*       1.0586936931E+00               0
GRID*                425               01.7345742330E+001.8539354773E+01+
*       1.7916895759E+00               0
GRID*                426               06.1700238858E-011.9210907018E+01+
*       2.5310095690E+00               0
GRID*                427               01.4712838218E+001.8648608646E+01+
*       -7.693877848E-02               0
GRID*                428               0-2.911027588E+00-2.232445084E+00+
*       -1.097041316E+00               0
GRID*                429               01.2130620234E+001.7193263378E+01+
*       1.0066943520E+00               0
GRID*                430               0-5.125806640E+00-1.278731777E+02+
*       -1.993668538E+00               0
GRID*                431               0-1.069918776E+001.9322707781E+01+
*       2.4101908141E+00               0
GRID*                432               0-2.550313383E+001.6315767745E+01+
*       -1.255420393E+00               0
GRID*                433               0-1.131736089E+001.5324255442E+01+
*       -1.137372710E+00               0
GRID*                434               0-2.211130056E+001.4500066493E+01+
*       9.6187454378E-01               0
GRID*                435               02.4948797195E-012.0108568696E+01+
*       1.4115798635E+00               0
GRID*                436               0-4.181221878E-012.1278998566E+01+
*       -1.976609096E+00               0
GRID*                437               0-1.089510598E-011.9394189228E+01+
*       -2.073045433E+00               0
GRID*                438               05.4381377507E-012.0684213466E+01+
*       -1.602843931E+00               0
GRID*                439               04.4706795246E-012.1860079100E+01+
*       -1.370081259E+00               0
GRID*                440               0-8.637550058E-012.1707411625E+01+
*       -1.110540201E+00               0
GRID*                441               0-3.303996386E+002.4356385580E+01+
*       1.9594567482E+00               0
GRID*                442               0-5.300603381E+002.1938689923E+01+
*       1.8463644721E+00               0
GRID*                443               0-2.862925813E+002.7811484353E+01+
*       -9.442755869E-01               0
GRID*                444               0-3.427623142E+002.8325728191E+01+
*       -1.812351801E+00               0
GRID*                445               0-4.024844117E+002.8899360654E+01+
*       -8.025255103E-01               0
GRID*                446               04.5628160283E+00-1.293048415E+02+
*       1.9911888834E+00               0
GRID*                447               05.6698498108E+00-1.257255794E+02+
*       -4.637756909E-01               0
GRID*                448               05.8914646149E+002.3741500902E+01+
*       2.3524500928E+00               0
GRID*                449               03.6743871878E+002.4055526711E+01+
*       1.8433020090E+00               0
GRID*                450               05.0198334155E+002.5220787926E+01+
*       2.1282487966E+00               0
GRID*                451               05.9043085108E+002.4308050444E+01+
*       1.2488807988E+00               0
GRID*                452               05.6241053830E+002.3462965927E+01+
*       -7.190360350E-01               0
GRID*                453               04.5764834789E+002.2200043016E+01+
*       6.7679897543E-01               0
GRID*                454               05.3989250106E+002.2845173034E+01+
*       8.5851896560E-01               0
GRID*                455               02.0279262611E+00-1.205249005E+02+
*       3.0005862259E+00               0
GRID*                456               01.2575394195E+00-1.218989395E+02+
*       3.2431632625E+00               0
GRID*                457               06.3590522775E+002.4811234982E+01+
*       -1.930601679E+00               0
GRID*                458               05.8963748899E+002.3153124678E+01+
*       -2.028183603E+00               0
GRID*                459               05.8094249893E+002.1890281833E+01+
*       1.8140184969E+00               0
GRID*                460               03.6506982980E+00-1.389533470E-01+
*       -1.115326488E+00               0
GRID*                461               02.1345375175E-01-1.210551482E+02+
*       -3.496895236E+00               0
GRID*                462               03.4111165379E+002.3784203305E+00+
*       8.2618175475E-01               0
GRID*                463               01.9004772867E+004.4663046124E+00+
*       1.2455401326E+00               0
GRID*                464               0-1.094453081E-01-1.380808931E+01+
*       1.7490417018E-01               0
GRID*                465               01.0758279982E-01-1.000136354E+01+
*       2.3376665499E-02               0
GRID*                466               0-7.422144341E-01-1.208225100E+02+
*       -2.047714282E+00               0
GRID*                467               02.0956516824E+00-1.196888645E+02+
*       -2.250206777E+00               0
GRID*                468               0-2.863220318E-01-1.202094546E+02+
*       -3.132480053E+00               0
GRID*                469               0-4.000553187E-01-3.263563604E+01+
*       8.4751491877E-01               0
GRID*                470               0-2.819831486E+00-3.229464753E+01+
*       1.4825490917E+00               0
GRID*                471               0-3.630912409E+00-3.395966456E+01+
*       1.0995775582E+00               0
GRID*                472               0-2.707521926E+00-3.213368533E+01+
*       -9.923215348E-01               0
GRID*                473               0-4.006524325E+00-3.020173462E+01+
*       6.0303782221E-01               0
GRID*                474               0-4.474836425E+002.7959223110E+01+
*       3.1458764923E-01               0
GRID*                475               0-5.611410757E+002.7409013391E+01+
*       -2.009330500E+00               0
GRID*                476               0-5.602777493E+002.6343128636E+01+
*       -4.057086447E-01               0
GRID*                477               02.8743284721E+00-1.199890975E+02+
*       2.5926620793E+00               0
GRID*                478               0-3.074923714E-01-4.073685474E+01+
*       -2.735442445E-01               0
GRID*                479               0-1.990197037E+00-4.110430568E+01+
*       -1.343937258E+00               0
GRID*                480               0-2.992128485E-01-4.380566705E+01+
*       -9.788912756E-01               0
GRID*                481               0-2.861198216E+002.9759706701E+01+
*       -4.963400974E-01               0
GRID*                482               0-3.772068544E+00-4.440818327E+01+
*       1.0336869747E+00               0
GRID*                483               0-3.403274891E+00-4.240990065E+01+
*       1.1941942115E+00               0
GRID*                484               02.4609696932E+00-4.211731559E+01+
*       -1.089143941E+00               0
GRID*                485               0-3.878413799E+00-5.695818126E+01+
*       2.6167883011E-01               0
GRID*                486               0-2.518193527E+00-5.988140919E+01+
*       9.7890968897E-01               0
GRID*                487               0-3.899613290E+00-5.883230317E+01+
*       7.3748302168E-02               0
GRID*                488               0-2.428308440E+00-5.863871276E+01+
*       -1.205432381E+00               0
GRID*                489               0-2.646061020E+00-6.032993261E+01+
*       -1.154765743E+00               0
GRID*                490               0-2.894416639E+00-6.703598096E+01+
*       -8.629753820E-01               0
GRID*                491               0-3.639225437E+002.9267484016E+01+
*       1.0666178029E+00               0
GRID*                492               0-4.544315928E+002.9200233789E+01+
*       -2.069928372E+00               0
GRID*                493               02.6418464542E+001.6303959414E+01+
*       8.4053154429E-01               0
GRID*                494               03.9785536457E+001.8397026961E+01+
*       3.5652843522E-01               0
GRID*                495               03.9359440779E+001.7370614736E+01+
*       -1.142573030E+00               0
GRID*                496               0-2.512423231E+002.8745397562E+01+
*       -3.368133474E+00               0
GRID*                497               0-3.918009018E+002.7375874497E+01+
*       -3.256434346E+00               0
GRID*                498               0-2.378166779E+002.7649145595E+01+
*       -3.409627086E+00               0
GRID*                499               01.6306449378E+00-1.221965480E+02+
*       1.8722006943E+00               0
GRID*                500               02.3759429916E-02-4.740365812E+01+
*       -1.262733208E+00               0
GRID*                501               05.8018091366E-01-7.925806745E+01+
*       5.6178017976E-01               0
GRID*                502               0-1.107088980E+00-7.814843938E+01+
*       8.3544767614E-01               0
GRID*                503               0-2.453805482E+00-7.519413753E+01+
*       -1.268067211E+00               0
GRID*                504               0-3.980105638E+00-7.590802586E+01+
*       -2.632633817E-01               0
GRID*                505               0-3.132442474E+00-6.207161888E+01+
*       -1.015826886E+00               0
GRID*                506               0-1.675309015E+00-6.316117692E+01+
*       -3.989024713E-01               0
GRID*                507               0-2.883937963E+00-8.988046657E+01+
*       1.1875656621E+00               0
GRID*                508               06.0847029833E-02-9.126657027E+01+
*       -1.235447123E-01               0
GRID*                509               02.2717566563E+00-1.278626126E+02+
*       1.3319346778E-02               0
GRID*                510               01.9744466097E+00-1.291682081E+02+
*       -1.358412516E+00               0
GRID*                511               09.0539451500E-01-1.304370433E+02+
*       -2.449943486E+00               0
GRID*                512               02.4346769744E+00-1.302465444E+02+
*       -2.189338970E+00               0
GRID*                513               01.2137640221E+00-1.286257376E+02+
*       -2.383706137E+00               0
GRID*                514               03.0057287172E+00-1.296795793E+02+
*       -2.102666273E+00               0
GRID*                515               02.7261029692E+00-1.287209384E+02+
*       -3.354966323E+00               0
GRID*                516               02.7707163558E+00-1.287137045E+02+
*       -1.466016619E+00               0
GRID*                517               0-2.697718822E+00-8.843508191E+01+
*       1.2105464619E+00               0
GRID*                518               03.8106083341E+00-8.787165909E+01+
*       4.3705081431E-01               0
GRID*                519               05.8774695689E-01-1.175843835E+02+
*       1.7034071804E+00               0
GRID*                520               0-5.788779737E-01-1.173285765E+02+
*       1.5711409499E+00               0
GRID*                521               09.7075697532E-01-1.187031197E+02+
*       5.4714709431E-01               0
GRID*                522               0-2.866803686E+002.1367441209E+01+
*       3.2177234244E+00               0
GRID*                523               01.3560297311E+00-1.176842660E+02+
*       4.0306660921E-01               0
GRID*                524               05.2618719166E-01-1.163211561E+02+
*       8.1721023878E-01               0
GRID*                525               04.4943485773E+002.5466374810E+01+
*       -3.241148004E+00               0
GRID*                526               04.8272998146E+002.4615462816E+01+
*       -1.546382399E+00               0
GRID*                527               04.1879690793E+002.5549831903E+01+
*       -8.393117354E-02               0
GRID*                528               06.1789055799E+002.4859787561E+01+
*       -4.172093284E-01               0
GRID*                529               04.8161765667E+002.6476558265E+01+
*       -1.055058511E+00               0
GRID*                530               04.3840768886E+002.4071745482E+01+
*       -3.158681586E+00               0
GRID*                531               04.2060192016E+002.3353242890E+01+
*       -1.597860183E+00               0
GRID*                532               0-2.947632915E-011.6993641736E+01+
*       -1.517228060E+00               0
GRID*                533               0-1.224766461E-011.5588202303E+01+
*       1.1416481581E+00               0
GRID*                534               01.0214167834E+001.7052130434E+01+
*       -1.440603017E+00               0
GRID*                535               02.7483746313E+001.7744955513E+01+
*       -1.606946236E-01               0
GRID*                536               03.4283154900E+002.4389155732E+01+
*       -1.920202586E+00               0
GRID*                537               02.5667614633E+002.8128405047E+01+
*       -1.344773632E-01               0
GRID*                538               0-2.849851281E+00-3.597423963E+01+
*       -1.245408351E+00               0
GRID*                539               0-3.273577176E+00-3.982096702E+01+
*       -1.233217500E+00               0
GRID*                540               0-2.201271425E+00-3.365914442E+01+
*       1.1423323281E+00               0
GRID*                541               05.4354373852E+002.7907293799E+01+
*       -1.386331416E-01               0
GRID*                542               03.2757095012E+002.6868900552E+01+
*       9.8558399771E-02               0
GRID*                543               0-5.986597626E+002.5155310180E+01+
*       2.3662926876E+00               0
GRID*                544               04.6491319447E+002.9272392775E+01+
*       -1.957230173E+00               0
GRID*                545               05.3937449579E+002.7878784606E+01+
*       -2.116308978E+00               0
GRID*                546               03.9940633041E+002.7529383162E+01+
*       -2.886947530E+00               0
GRID*                547               03.0182244646E+002.6632083439E+01+
*       -1.423849024E+00               0
GRID*                548               02.2049042930E+001.7435500082E+01+
*       1.5492786791E+00               0
GRID*                549               03.2259863547E+001.8275502124E+01+
*       1.3339270004E+00               0
GRID*                550               0-2.484299801E+00-1.172426565E+02+
*       -1.532946806E+00               0
GRID*                551               0-2.843395842E+00-1.157493586E+02+
*       -9.302519610E-01               0
GRID*                552               0-3.818916100E+00-1.167941366E+02+
*       -1.297623139E+00               0
GRID*                553               01.0659520323E+00-1.167528079E+02+
*       -1.718884076E+00               0
GRID*                554               0-2.425453299E+00-1.187612043E+02+
*       1.9576573688E+00               0
GRID*                555               02.0637122332E+001.9456368721E+01+
*       -2.342626017E+00               0
GRID*                556               0-1.284547830E+00-1.219430786E+02+
*       2.0942371869E+00               0
GRID*                557               03.7275099538E+001.8788527978E+01+
*       -1.879821473E+00               0
GRID*                558               03.6457240749E+001.2114882831E+01+
*       -1.321139828E+00               0
GRID*                559               05.8455184913E+00-1.264162673E+02+
*       1.3045107531E+00               0
GRID*                560               03.6111484801E+00-1.249995601E+02+
*       1.1055810560E+00               0
GRID*                561               0-3.689768576E+00-9.610009061E+01+
*       1.2462459881E+00               0
GRID*                562               0-1.727279068E+00-9.484381679E+01+
*       1.2553421428E+00               0
GRID*                563               0-2.499414740E+00-9.648003308E+01+
*       -7.088100957E-01               0
GRID*                564               0-1.749655269E+00-9.709282127E+01+
*       1.2733734501E+00               0
GRID*                565               01.7615920545E-02-9.601180626E+01+
*       -1.605253894E-01               0
GRID*                566               03.1961656550E+008.6646010762E+00+
*       8.7941858453E-01               0
GRID*                567               0-2.663088922E+00-9.478781802E+01+
*       -8.963049430E-01               0
GRID*                568               0-2.695534031E+00-9.337070350E+01+
*       3.8454658702E-01               0
GRID*                569               04.7852999189E-02-9.384552943E+01+
*       3.7257466715E-01               0
GRID*                570               0-3.933360379E+00-1.041177057E+02+
*       -1.156003146E+00               0
GRID*                571               0-7.046331506E-01-1.184432425E+02+
*       1.8540102485E+00               0
GRID*                572               0-8.312320497E-01-1.177612382E+02+
*       -1.338025286E+00               0
GRID*                573               0-1.834043167E+00-1.174515698E+02+
*       4.4437186443E-02               0
GRID*                574               02.9590895866E+002.3772421639E+01+
*       -1.134700455E+00               0
GRID*                575               04.1881238873E+002.0843556658E+01+
*       -2.193365913E+00               0
GRID*                576               0-3.310797694E+00-1.270255422E+02+
*       1.9131168272E+00               0
GRID*                577               0-4.327839210E+00-1.261130307E+02+
*       1.7462141253E+00               0
GRID*                578               0-3.573407719E+00-1.268501878E+02+
*       -7.403907911E-02               0
GRID*                579               02.6292336387E+002.2605529938E+01+
*       -3.194808963E+00               0
GRID*                580               04.7185748875E+002.1747657816E+01+
*       -1.099484677E+00               0
GRID*                581               03.0133234335E+002.2582658037E+01+
*       -2.126211180E-01               0
GRID*                582               03.5655441570E+002.3962013262E+01+
*       5.4945371978E-02               0
GRID*                583               0-5.130553168E+00-1.279714765E+02+
*       2.3351671037E+00               0
GRID*                584               0-3.007171409E+00-1.303131804E+02+
*       -1.870245641E+00               0
GRID*                585               0-5.166034133E+00-1.280104037E+02+
*       -4.204514055E-01               0
GRID*                586               0-3.510534775E+00-1.291685109E+02+
*       -8.143308725E-01               0
GRID*                587               03.9907419491E+00-4.646471858E+00+
*       -1.012807856E+00               0
GRID*                588               0-1.397143219E+002.1808732974E+01+
*       -3.219653272E+00               0
GRID*                589               0-5.400189210E+00-1.266651761E+02+
*       -2.564293359E+00               0
GRID*                590               0-4.461050693E+00-1.258114366E+02+
*       -3.253860456E+00               0
GRID*                591               0-4.967546007E+00-1.249506216E+02+
*       -1.233381374E+00               0
GRID*                592               0-4.249141221E+00-1.262816594E+02+
*       -1.818098889E+00               0
GRID*                593               0-3.620667206E-012.1053214382E+01+
*       -3.428534661E+00               0
GRID*                594               0-2.880409838E+00-3.034169992E+01+
*       -1.156389447E+00               0
GRID*                595               0-4.011902520E+00-2.894383693E+01+
*       3.1913206160E-01               0
GRID*                596               03.4183523825E+00-1.145257528E+02+
*       -1.027936867E+00               0
GRID*                597               01.3356409957E+00-1.283115421E+02+
*       -3.395288866E+00               0
GRID*                598               04.6927317798E+002.1830265578E+01+
*       -2.485092448E+00               0
GRID*                599               03.2150425862E+002.3671047358E+01+
*       -3.052713360E+00               0
GRID*                600               0-2.767262739E+00-2.823793884E+01+
*       1.1632453358E+00               0
GRID*                601               0-4.063284292E+00-1.001506095E+02+
*       -1.852405797E-01               0
GRID*                602               0-3.809624795E+00-9.793343910E+01+
*       -1.055005209E+00               0
GRID*                603               0-3.470559171E+00-9.966126099E+01+
*       1.3515619144E+00               0
GRID*                604               0-4.040924770E+00-9.799245178E+01+
*       1.1959389702E+00               0
GRID*                605               0-1.797709725E+00-9.888383336E+01+
*       1.2741125454E+00               0
GRID*                606               0-2.247690784E+00-1.002498464E+02+
*       -1.039491579E+00               0
GRID*                607               0-4.135542361E+00-1.016544922E+02+
*       9.5905974776E-01               0
GRID*                608               0-1.917630624E+00-1.007876522E+02+
*       1.2001411243E+00               0
GRID*                609               0-3.129136151E+001.0618735598E-01+
*       -1.004123310E+00               0
GRID*                610               01.2027010832E+00-3.952873663E+01+
*       1.0268001765E+00               0
GRID*                611               03.0210505899E+00-3.845322314E+01+
*       1.0477368992E+00               0
GRID*                612               03.9847545373E+00-3.994799072E+01+
*       7.9337247030E-01               0
GRID*                613               03.0192760916E+00-1.069435460E+02+
*       -1.021311534E+00               0
GRID*                614               02.8897665338E+00-7.847030976E+01+
*       1.1838009990E+00               0
GRID*                615               04.1449759932E+00-7.705937936E+01+
*       4.7657425060E-02               0
GRID*                616               02.8897643210E+00-7.801680552E+01+
*       -1.004385617E+00               0
GRID*                617               0-1.884493247E+00-1.046894767E+02+
*       -1.012281657E+00               0
GRID*                618               0-3.306311128E+00-1.060324787E+02+
*       -1.229521120E+00               0
GRID*                619               0-3.363146630E-02-1.075029511E+02+
*       -2.691003711E-01               0
GRID*                620               0-3.447031688E+00-6.433869142E+01+
*       1.1816074289E+00               0
GRID*                621               0-3.281888375E+00-6.644420114E+01+
*       8.7795211608E-01               0
GRID*                622               0-1.910870903E-01-6.784161053E+01+
*       4.5973495748E-02               0
GRID*                623               0-1.352196035E+00-6.544039818E+01+
*       4.0895962734E-01               0
GRID*                624               03.4660208416E+00-7.603440567E+01+
*       -1.392350530E+00               0
GRID*                625               02.5675242888E+00-7.634772039E+01+
*       1.2505328601E+00               0
GRID*                626               02.0132786074E+002.0519455382E+01+
*       -3.001152552E+00               0
GRID*                627               0-2.343670583E+001.9581721909E+01+
*       -2.344658305E+00               0
GRID*                628               0-1.074563691E+001.9312880852E+01+
*       -2.205409050E+00               0
GRID*                629               0-1.531877349E+002.0394734966E+01+
*       -2.772758402E+00               0
GRID*                630               01.2391677235E+001.9306957194E+01+
*       -2.369289680E+00               0
GRID*                631               0-1.633060430E+00-1.175854283E+02+
*       1.6392502709E+00               0
GRID*                632               03.3188068250E+00-5.922507631E+00+
*       9.1404147139E-01               0
GRID*                633               03.3479899309E+00-4.054896206E+00+
*       1.0571581379E+00               0
GRID*                634               0-4.860057391E+002.2208019723E+01+
*       7.0111796176E-01               0
GRID*                635               0-3.554685023E+002.1858545408E+01+
*       1.6051520646E+00               0
GRID*                636               06.7300110226E-01-1.292663502E+02+
*       3.3810405090E+00               0
GRID*                637               0-3.350181124E+005.0040379115E+00+
*       1.1518794630E+00               0
GRID*                638               0-2.910623242E+00-4.552783523E+01+
*       1.3816169551E+00               0
GRID*                639               0-3.962218488E+00-4.625446413E+01+
*       -6.787214605E-01               0
GRID*                640               0-1.166687197E+00-1.281993919E+02+
*       3.2546276487E+00               0
GRID*                641               02.5645062074E+006.4326262853E+00+
*       -9.144291218E-01               0
GRID*                642               07.7208276637E-028.7367041603E+00+
*       -3.689448323E-01               0
GRID*                643               01.2229528138E+005.4556607732E+00+
*       -9.963577276E-01               0
GRID*                644               04.2655049442E-016.9395892535E+00+
*       1.1230253450E+00               0
GRID*                645               04.0108318059E+002.3066600120E+01+
*       1.7290840011E+00               0
GRID*                646               0-2.973531649E+001.1581031563E+00+
*       1.0089668265E+00               0
GRID*                647               02.7370590098E+002.2979568695E+01+
*       2.1241723946E+00               0
GRID*                648               05.7684873209E-01-1.286378118E+02+
*       1.8515782966E+00               0
GRID*                649               0-3.671066762E-01-1.305161770E+02+
*       1.1924317205E+00               0
GRID*                650               02.1286239148E+00-4.468061822E+01+
*       1.0445748326E+00               0
GRID*                651               02.1171148664E+00-4.281417335E+01+
*       1.2702406136E+00               0
GRID*                652               03.8945142638E+00-4.440558332E+01+
*       6.6511317081E-01               0
GRID*                653               03.9444039305E+00-4.336811063E+01+
*       -9.041004414E-01               0
GRID*                654               02.8322013826E+002.3328735464E+01+
*       8.8036815145E-01               0
GRID*                655               04.0749172763E+002.4953008197E+01+
*       9.3316169416E-01               0
GRID*                656               0-3.011116353E+00-7.298648438E+01+
*       1.2063369618E+00               0
GRID*                657               02.2390747247E-01-7.266855745E+01+
*       -3.465719665E-01               0
GRID*                658               0-2.617009438E+00-7.349192571E+01+
*       -1.081498626E+00               0
GRID*                659               0-3.002345618E+00-2.433580778E+01+
*       1.2383290223E+00               0
GRID*                660               0-3.995463369E+00-2.623268760E+01+
*       7.4657720976E-02               0
GRID*                661               01.1503979112E+00-2.268041238E+01+
*       -2.292017036E-01               0
GRID*                662               0-6.703870038E-01-2.356618985E+01+
*       3.6224141711E-01               0
GRID*                663               0-8.454118316E-01-2.153215107E+01+
*       6.8178231531E-03               0
GRID*                664               02.9507298626E+00-1.762823305E+00+
*       -9.683754777E-01               0
GRID*                665               0-4.074076332E+00-3.558003946E+01+
*       2.9869806691E-01               0
GRID*                666               0-2.717775370E+00-3.423799008E+01+
*       -1.067649829E+00               0
GRID*                667               0-4.035639133E+00-3.364242217E+01+
*       -8.047660019E-01               0
GRID*                668               0-1.881154829E+00-1.027237766E+02+
*       1.3307668226E+00               0
GRID*                669               09.0138002512E-02-1.017394772E+02+
*       5.3905261749E-01               0
GRID*                670               06.0442968059E-02-3.621244988E+01+
*       1.0876744514E-01               0
GRID*                671               0-2.239541778E+00-3.574182060E+01+
*       1.1013771551E+00               0
GRID*                672               0-1.949219700E+00-5.269409075E+01+
*       1.2546493633E+00               0
GRID*                673               0-2.796728661E-02-5.383449284E+01+
*       1.1490526851E+00               0
GRID*                674               06.2731508832E-01-5.222237454E+01+
*       -1.292244927E+00               0
GRID*                675               0-3.991153891E+00-4.966874360E+01+
*       9.8380536664E-01               0
GRID*                676               0-4.069028579E+00-4.940676326E+01+
*       -1.019140276E+00               0
GRID*                677               0-3.856526334E+00-4.781051597E+01+
*       -1.832281094E-01               0
GRID*                678               0-2.394080826E+00-7.677381203E+01+
*       -1.345448769E+00               0
GRID*                679               0-3.286388020E+00-5.097511950E+01+
*       -1.168904232E+00               0
GRID*                680               0-2.111429972E+00-4.877873679E+01+
*       -1.343154748E+00               0
GRID*                681               0-3.672427944E+00-8.174704794E+01+
*       -1.293125686E+00               0
GRID*                682               0-3.681728766E+00-8.023094158E+01+
*       -1.210536795E+00               0
GRID*                683               0-2.398266307E+00-4.893845835E+01+
*       1.2062630748E+00               0
GRID*                684               0-2.245274427E+00-7.923460893E+01+
*       -1.364459221E+00               0
GRID*                685               02.4413376890E+001.3361335341E+01+
*       -1.275298577E+00               0
GRID*                686               02.6469343501E+001.4698532501E+01+
*       -1.336476580E+00               0
GRID*                687               03.6324166748E-011.3778435923E+01+
*       -1.877021289E-01               0
GRID*                688               03.5985323057E+00-6.984820620E+01+
*       -1.210561861E+00               0
GRID*                689               01.6268656629E+001.0088447310E+01+
*       -1.339716062E+00               0
GRID*                690               0-2.138677974E+001.0214571783E+01+
*       -1.079020033E+00               0
GRID*                691               0-1.771418222E+001.4034455158E+01+
*       -1.287604192E+00               0
GRID*                692               08.9663152091E-011.2096735358E+01+
*       -3.318074541E-01               0
GRID*                693               0-3.362175768E-01-3.976355964E+00+
*       -7.846767422E-02               0
GRID*                694               01.5938945073E+00-8.566800614E+01+
*       1.2235734995E+00               0
GRID*                695               01.9058160516E+00-8.761577776E+01+
*       -4.199104074E-01               0
GRID*                696               03.8224608563E+00-8.598261285E+01+
*       -1.077670525E+00               0
GRID*                697               03.9757642433E+00-8.409836447E+01+
*       -1.011791939E+00               0
GRID*                698               0-2.807308102E+00-1.210643195E+01+
*       -1.084308545E+00               0
GRID*                699               01.0954271610E+00-8.555034528E+01+
*       -1.102674900E+00               0
GRID*                700               01.9711681532E+001.4892368122E+01+
*       1.0922716155E+00               0
GRID*                701               04.0226495228E+001.3760431945E+01+
*       -6.876270033E-01               0
GRID*                702               03.8602122471E+001.3667550128E+01+
*       1.2253274519E+00               0
GRID*                703               04.6746773161E+00-1.278384000E+02+
*       -2.448179838E+00               0
GRID*                704               04.1632740804E+00-1.208643432E+02+
*       2.3735550975E+00               0
GRID*                705               0-3.968124587E+00-1.267620200E+02+
*       3.3844374642E+00               0
GRID*                706               0-4.520489146E+00-1.258452346E+02+
*       3.2215858839E+00               0
GRID*                707               0-3.411705858E+00-1.254237720E+02+
*       3.1027943263E+00               0
GRID*                708               04.0991498623E+00-9.562581900E+01+
*       -1.189853428E+00               0
GRID*                709               0-6.058071304E+00-1.269109301E+02+
*       1.7785731454E+00               0
GRID*                710               0-5.997707475E+00-1.259704944E+02+
*       1.4898089852E-01               0
GRID*                711               02.0525322657E+00-9.663591170E+01+
*       -1.265744331E+00               0
GRID*                712               01.8263599201E+00-9.881726739E+01+
*       -1.241272323E+00               0
GRID*                713               03.6652548873E+00-9.846476490E+01+
*       -1.070553944E+00               0
GRID*                714               0-6.321488875E-012.3490588153E+00+
*       4.8137045833E-01               0
GRID*                715               0-5.961710669E+002.3702734990E+01+
*       -2.199242810E+00               0
GRID*                716               0-4.676695183E+002.5000192716E+01+
*       -1.685857324E+00               0
GRID*                717               01.1425367694E+001.0497373744E+00+
*       8.4227703391E-02               0
GRID*                718               07.5693828641E-012.9556410964E+01+
*       3.2996233817E+00               0
GRID*                719               0-9.851071182E-012.9498723024E+01+
*       3.1836341923E+00               0
GRID*                720               01.9480869479E-012.8218338124E+01+
*       1.0086671543E+00               0
GRID*                721               0-2.439367024E+002.8867992520E+01+
*       3.2097194802E+00               0
GRID*                722               0-2.730369839E+002.3240746270E+01+
*       -5.253428586E-01               0
GRID*                723               0-1.705805962E+001.8565034032E+01+
*       -1.527148931E+00               0
GRID*                724               0-2.047146806E+002.2393830742E+01+
*       -1.006890609E+00               0
GRID*                725               04.9690552229E+002.8589720277E+01+
*       1.1580916889E+00               0
GRID*                726               03.5970279877E+002.8323570819E+01+
*       1.5968303822E+00               0
GRID*                727               04.1050187612E+002.6527777527E+01+
*       1.3255961991E+00               0
GRID*                728               05.1215675650E+002.8004823980E+01+
*       2.3559548594E+00               0
GRID*                729               01.8240670162E+00-1.296311949E+02+
*       3.0129877970E+00               0
GRID*                730               02.9077023147E+00-1.287360555E+02+
*       3.1131572302E+00               0
GRID*                731               03.6100560862E+00-1.268283000E+02+
*       -1.563861236E-01               0
GRID*                732               03.7564572143E+00-1.222157879E+02+
*       3.2411364367E+00               0
GRID*                733               02.6852552573E+00-1.226449400E+02+
*       3.2034891517E+00               0
GRID*                734               03.3233109825E+00-1.261425608E+02+
*       1.0497010220E+00               0
GRID*                735               03.6423568177E+00-1.277806182E+02+
*       1.6492977224E+00               0
GRID*                736               04.3911866921E+00-1.263895201E+02+
*       -1.436430355E+00               0
GRID*                737               03.7108573048E+00-1.275565356E+02+
*       -1.669599197E+00               0
GRID*                738               05.0925814081E+00-1.282750647E+02+
*       -3.609121852E-02               0
GRID*                739               03.7832283259E+002.7618544363E+01+
*       3.2585758484E+00               0
GRID*                740               01.2088836707E+00-1.194225533E+02+
*       2.5793342229E+00               0
GRID*                741               0-1.379268029E+00-1.215043928E+02+
*       3.4705584496E+00               0
GRID*                742               0-1.643498834E+00-1.220701142E+02+
*       -1.812428685E+00               0
GRID*                743               0-1.228871249E+00-1.216818376E+02+
*       -3.141842880E+00               0
GRID*                744               0-2.484835630E+00-1.227476658E+02+
*       -3.130399170E+00               0
GRID*                745               0-7.915695390E-01-1.217759964E+02+
*       -1.011271008E+00               0
GRID*                746               0-3.116843128E+00-1.242866732E+02+
*       -1.036299043E+00               0
GRID*                747               0-2.499810681E+00-1.227759374E+02+
*       -1.260253463E+00               0
GRID*                748               0-1.671948709E+003.0614222948E+01+
*       2.8240066961E-01               0
GRID*                749               0-4.920314162E-023.1050632455E+01+
*       1.5399546240E+00               0
GRID*                750               02.9195192182E+002.0152065595E+01+
*       -2.319414673E+00               0
GRID*                751               03.4974629811E+002.5791901001E+01+
*       -1.892188118E+00               0
GRID*                752               01.5972884601E+00-3.525891787E+01+
*       1.0361993005E+00               0
GRID*                753               01.7515716137E+00-3.533293765E+01+
*       -1.074395476E+00               0
GRID*                754               01.7647857298E+00-3.338937577E+01+
*       -1.129219993E+00               0
GRID*                755               03.5947556681E+00-3.386380777E+01+
*       -4.066269380E-01               0
GRID*                756               01.7660475960E+00-3.336383242E+01+
*       1.2071078688E+00               0
GRID*                757               03.6510056885E+00-3.514086683E+01+
*       1.0008588623E+00               0
GRID*                758               03.4497789912E+00-3.237816243E+01+
*       9.9444722184E-01               0
GRID*                759               0-3.751827001E+001.5829656606E+01+
*       1.2439926130E+00               0
GRID*                760               03.8493550793E+00-3.571775634E+01+
*       -1.181151778E+00               0
GRID*                761               0-2.981642006E+00-1.124561603E+02+
*       -1.000452006E+00               0
GRID*                762               0-3.124890935E+00-5.140851276E+00+
*       1.0940187622E+00               0
GRID*                763               0-3.106819870E+00-2.775252148E+00+
*       1.1182938700E+00               0
GRID*                764               0-1.425631025E+00-1.126457932E+02+
*       1.2312991813E+00               0
GRID*                765               0-3.450662170E+00-1.139948189E+02+
*       1.2109499678E+00               0
GRID*                766               0-7.424016149E-02-3.462475211E+01+
*       6.5242266942E-01               0
GRID*                767               0-2.907320086E+00-8.595982290E+01+
*       9.0082202315E-01               0
GRID*                768               0-3.884236151E+00-8.402630038E+01+
*       1.1064361357E-01               0
GRID*                769               0-2.307828893E+00-8.356578380E+01+
*       1.1817079885E+00               0
GRID*                770               0-3.808920524E+00-8.254517714E+01+
*       7.3642621759E-01               0
GRID*                771               0-2.870662213E+00-6.451438032E+01+
*       -1.164381812E+00               0
GRID*                772               02.6026006328E+00-5.934435680E+01+
*       -1.031848412E+00               0
GRID*                773               03.9038910701E+00-5.870709144E+01+
*       -4.274266137E-01               0
GRID*                774               02.3696444776E+00-6.043799625E+01+
*       1.0704054766E+00               0
GRID*                775               0-1.308189602E+00-1.296421851E+02+
*       -3.061740642E+00               0
GRID*                776               02.3096359181E+00-5.893639987E+01+
*       9.4333507553E-01               0
GRID*                777               02.4933674929E+00-5.730888826E+01+
*       1.1059329788E+00               0
GRID*                778               02.0030103397E+001.9683089311E+01+
*       2.4351981069E+00               0
GRID*                779               0-3.880173179E+00-1.176911402E+02+
*       1.5905460227E-01               0
GRID*                780               02.1455883771E+00-4.428783623E+01+
*       -1.269789270E+00               0
GRID*                781               03.6970863208E+00-4.514848152E+01+
*       -1.093416995E+00               0
GRID*                782               0-2.573062258E+00-1.085998272E+01+
*       9.6047245720E-01               0
GRID*                783               0-2.712451216E+00-7.041787480E+00+
*       1.0809912252E+00               0
GRID*                784               0-2.957366240E+00-8.751071608E+00+
*       1.1591399737E+00               0
GRID*                785               01.8341092269E+00-5.309387269E+00+
*       1.2322202824E+00               0
GRID*                786               0-1.610618866E+00-1.184096314E+02+
*       -1.601421197E+00               0
GRID*                787               03.4224231248E+00-3.671402678E+01+
*       1.1426464114E+00               0
GRID*                788               03.2609491276E+003.0195458805E+01+
*       2.7235254357E-01               0
GRID*                789               04.5756697181E+002.9263130037E+01+
*       2.2015274896E+00               0
GRID*                790               0-1.529891119E-01-7.638924459E+01+
*       3.7031163793E-01               0
GRID*                791               02.4320629943E+002.8835870794E+01+
*       3.3015623774E+00               0
GRID*                792               02.0813998989E+002.7810547626E+01+
*       2.0817562136E+00               0
GRID*                793               03.5718339302E+005.0599486984E+00+
*       1.1300250884E+00               0
GRID*                794               02.7131417274E+006.5330797519E+00+
*       1.3660899824E+00               0
GRID*                795               03.4410458295E-01-5.982261501E+01+
*       -5.949495864E-01               0
GRID*                796               03.4008822519E+004.4681636484E+00+
*       -1.030133001E+00               0
GRID*                797               04.4853454580E+00-1.258801794E+02+
*       3.2420945704E+00               0
GRID*                798               0-2.343377490E+00-2.689938312E+01+
*       -8.056475342E-01               0
GRID*                799               0-2.681479384E+00-2.657927125E+01+
*       1.2241019644E+00               0
GRID*                800               02.9997188962E+00-6.833261443E+01+
*       -1.046975908E+00               0
GRID*                801               03.7368404100E+00-2.142274744E+01+
*       -6.709991142E-01               0
GRID*                802               03.4075603201E+00-2.382140154E+01+
*       1.1973504515E+00               0
GRID*                803               04.0196756060E+00-5.015595292E+01+
*       -9.620365888E-01               0
GRID*                804               03.9256477614E+00-4.845801097E+01+
*       2.2512104122E-02               0
GRID*                805               02.3966684374E+00-4.784088441E+01+
*       -1.000486288E+00               0
GRID*                806               04.0349967260E+00-4.664282531E+01+
*       1.0449453648E+00               0
GRID*                807               02.5023244302E+00-4.764924743E+01+
*       1.1707035096E+00               0
GRID*                808               02.3916518371E+00-7.465730968E+00+
*       -1.328377853E+00               0
GRID*                809               03.2065268632E+00-3.791757056E+01+
*       -1.195164767E+00               0
GRID*                810               03.4058414939E+00-1.262071773E+02+
*       3.2373845457E+00               0
GRID*                811               02.6050335218E+00-9.253956193E+00+
*       -1.193165863E+00               0
GRID*                812               03.9754855897E+00-9.125687291E+01+
*       -1.231208846E+00               0
GRID*                813               04.7668561778E+00-1.240350211E+02+
*       3.0792028772E+00               0
GRID*                814               02.6798484878E+00-8.891680913E+01+
*       1.1390953250E+00               0
GRID*                815               02.8540269277E+00-9.025333137E+01+
*       -1.028277871E+00               0
GRID*                816               03.2950633014E+00-8.896156281E+01+
*       -1.206387215E+00               0
GRID*                817               03.5601852484E+00-2.994433746E+01+
*       1.0501084297E+00               0
GRID*                818               02.0829755387E+00-3.956333737E+01+
*       -1.255694276E+00               0
GRID*                819               0-5.425143402E-012.8692233271E+01+
*       2.0414139508E+00               0
GRID*                820               09.6485362728E-012.8878331725E+01+
*       1.9181173056E+00               0
GRID*                821               08.7831886568E-012.8906002189E+01+
*       2.3628585895E-02               0
GRID*                822               0-1.954937125E+00-1.028608042E+02+
*       -9.828136445E-01               0
GRID*                823               0-6.147872750E-02-1.038205106E+02+
*       8.2304099519E-01               0
GRID*                824               02.6082825907E-021.5658607724E+01+
*       -8.553626492E-01               0
GRID*                825               01.8940688031E+002.2103305369E+01+
*       4.1253654107E-01               0
GRID*                826               0-1.057092813E+002.8273375345E+01+
*       -3.088039879E+00               0
GRID*                827               0-3.255156576E+002.9870814343E+01+
*       -2.465717082E+00               0
GRID*                828               02.7598301239E-012.8473461868E+01+
*       -3.171719860E+00               0
GRID*                829               0-2.090522251E+003.0090251289E+01+
*       -2.086955472E+00               0
GRID*                830               0-2.226343727E+002.8983923574E+01+
*       -1.309117897E+00               0
GRID*                831               01.4725771640E+00-1.052804552E+02+
*       -1.028275785E+00               0
GRID*                832               01.4866239118E+00-1.056647447E+02+
*       1.0259076347E+00               0
GRID*                833               0-1.581727079E+00-1.203996372E+02+
*       2.8702245262E+00               0
GRID*                834               0-1.325471419E+00-1.050448740E+02+
*       1.1517205980E+00               0
GRID*                835               0-1.064885291E-01-1.211706177E+02+
*       3.4248606304E+00               0
GRID*                836               01.8606011255E+00-1.276153921E+02+
*       -1.245463172E+00               0
GRID*                837               0-1.099078773E+00-1.287881322E+02+
*       -4.196445628E-02               0
GRID*                838               04.5545504515E+00-1.265338111E+02+
*       1.6592701426E+00               0
GRID*                839               05.2083703542E+00-1.279409906E+02+
*       1.9285163403E+00               0
GRID*                840               05.3734854954E+00-1.272222724E+02+
*       -7.583602845E-01               0
GRID*                841               0-2.027836374E+001.1886328739E+01+
*       -1.116337301E+00               0
GRID*                842               0-4.128654862E+001.2597212877E+01+
*       -1.001778814E+00               0
GRID*                843               0-3.812475804E+001.0954466754E+01+
*       -9.820641374E-01               0
GRID*                844               0-5.694153672E-011.8229148206E+01+
*       -2.060262358E+00               0
GRID*                845               04.2437288526E-011.7919491251E+01+
*       -1.069648588E+00               0
GRID*                846               0-3.601272455E+001.3031980213E+01+
*       1.2479758429E+00               0
GRID*                847               0-3.976694758E+001.4607951401E+01+
*       9.3350072169E-01               0
GRID*                848               0-7.042269739E-011.1332285585E+01+
*       -3.982201521E-02               0
GRID*                849               03.3390292190E+00-1.180237145E+02+
*       1.6793684482E+00               0
GRID*                850               03.6902974135E+00-1.190211452E+02+
*       1.8045632794E+00               0
GRID*                851               0-3.845742204E+00-1.059322402E+02+
*       9.3631628007E-01               0
GRID*                852               03.5209332606E+00-1.179494759E+02+
*       3.7475015635E-01               0
GRID*                853               0-4.069298923E+00-1.039593340E+02+
*       9.7922436746E-01               0
GRID*                854               0-2.666747825E+00-8.762050360E+01+
*       -1.289572035E+00               0
GRID*                855               0-2.841311741E+00-8.957085123E+01+
*       -1.202379535E+00               0
GRID*                856               0-2.606867179E+00-9.158956418E+01+
*       1.2959690687E+00               0
GRID*                857               02.3081167125E+001.9746468469E+01+
*       1.2949772765E+00               0
GRID*                858               07.7185266974E-012.1704540868E+01+
*       1.0774986087E+00               0
GRID*                859               02.2829181135E+00-1.177260280E+02+
*       1.7885548088E+00               0
GRID*                860               01.4086967978E+00-1.183708025E+02+
*       -1.702816383E+00               0
GRID*                861               03.5260122510E+00-1.158307461E+02+
*       -1.481020529E+00               0
GRID*                862               01.3109677361E+00-1.156095578E+02+
*       -4.745478221E-01               0
GRID*                863               0-2.618404329E+003.4178560379E+00+
*       9.9777540319E-01               0
GRID*                864               0-2.847638120E+00-2.422473882E+01+
*       -9.009064520E-01               0
GRID*                865               0-2.806719779E+00-2.222757270E+01+
*       -9.506762036E-01               0
GRID*                866               0-9.609762325E-02-3.080290920E+01+
*       -1.326372262E+00               0
GRID*                867               02.7226504328E+00-2.735322931E+01+
*       1.0183369971E+00               0
GRID*                868               0-8.485342582E-01-1.304836084E+02+
*       -2.344759152E-01               0
GRID*                869               0-2.516209763E+00-2.270556383E+01+
*       1.2416557699E+00               0
GRID*                870               0-2.783921495E+00-2.856624142E+01+
*       -1.363478169E+00               0
GRID*                871               0-2.928386886E-02-2.731590239E+01+
*       1.9475953977E-01               0
GRID*                872               01.3765545432E-01-4.581450815E+01+
*       9.4844391552E-01               0
GRID*                873               02.5598959351E+001.8773093433E+01+
*       1.9793067902E+00               0
GRID*                874               0-1.668021113E+00-2.988010987E+01+
*       1.3069623431E+00               0
GRID*                875               0-2.712954583E+00-5.433923277E+01+
*       9.6319611121E-01               0
GRID*                876               0-2.290541006E+00-5.599749571E+01+
*       8.6818211256E-01               0
GRID*                877               0-3.945357551E-02-5.437131462E+01+
*       -1.156763036E+00               0
GRID*                878               0-1.398585121E-02-9.792578892E+01+
*       2.5711492579E-02               0
GRID*                879               03.8650635914E+00-1.154697826E+02+
*       1.2455506564E+00               0
GRID*                880               0-2.567617356E+001.8838670645E+01+
*       1.9513075196E+00               0
GRID*                881               0-3.593661318E+002.0249153276E+01+
*       -1.393528728E+00               0
GRID*                882               0-9.026276236E-01-1.167003160E+02+
*       1.1488515198E+00               0
GRID*                883               01.0003787563E-01-6.164604363E+01+
*       -4.702676314E-01               0
GRID*                884               02.8688421243E+00-1.085675031E+02+
*       1.7580919945E-01               0
GRID*                885               03.0498647378E+00-6.104348120E-02+
*       8.8686419803E-01               0
GRID*                886               0-4.441644182E+00-1.291966397E+02+
*       -2.169260682E+00               0
GRID*                887               02.1853944985E+001.7007040401E+01+
*       -1.098931681E+00               0
GRID*                888               01.3225722562E+002.1769268278E+01+
*       -2.228781812E+00               0
GRID*                889               0-4.297859256E+002.8962937399E+01+
*       2.5698070221E+00               0
GRID*                890               01.8310220086E+00-3.691826010E+01+
*       -1.203156709E+00               0
GRID*                891               02.3872517996E+002.2579531913E+01+
*       1.1210445772E+00               0
GRID*                892               0-2.066844055E+001.2383005987E+01+
*       1.1420946555E+00               0
GRID*                893               02.7575368676E+00-7.411664482E+01+
*       -1.324753235E+00               0
GRID*                894               0-1.155714781E+00-1.295440361E+02+
*       3.2608758422E+00               0
GRID*                895               0-1.389980060E+00-1.311281198E+02+
*       1.9896015258E+00               0
GRID*                896               03.9285703326E+00-1.250310299E+02+
*       -1.082252678E+00               0
GRID*                897               03.7322785016E+00-1.000054774E+02+
*       -8.597080851E-01               0
GRID*                898               0-3.381950417E+002.1799664695E+01+
*       -1.675802321E+00               0
GRID*                899               0-4.663049594E+002.1898206154E+01+
*       -5.805946842E-01               0
GRID*                900               02.6718104105E+00-1.898737040E+01+
*       -9.746314796E-01               0
GRID*                901               0-4.831828321E+002.0637481354E+01+
*       -1.084344376E+00               0
GRID*                902               01.9203873438E+001.0224604701E+01+
*       8.8768780015E-01               0
GRID*                903               02.9275425955E+008.5017515144E+00+
*       -1.209097618E+00               0
GRID*                904               0-5.779161249E+00-1.265883146E+02+
*       -1.323032017E+00               0
GRID*                905               02.8296668387E+001.2597966894E+01+
*       6.5020938419E-01               0
GRID*                906               0-3.695845761E+00-1.250991678E+02+
*       -1.115536193E+00               0
GRID*                907               0-4.491620395E+00-1.233803781E+02+
*       -1.706113098E+00               0
GRID*                908               04.0738341907E+007.3492841483E+00+
*       -4.302315196E-01               0
GRID*                909               0-5.479146124E+00-1.233294698E+02+
*       -2.294225656E+00               0
GRID*                910               0-5.779334059E+002.6212596765E+01+
*       -2.309114936E+00               0
GRID*                911               01.2628300304E+002.8178663033E+01+
*       3.2187612329E+00               0
GRID*                912               01.6613357132E+002.7778307519E+01+
*       1.1214269636E+00               0
GRID*                913               0-5.996143152E-01-1.283313942E+02+
*       1.0533936488E+00               0
GRID*                914               02.2540535333E-012.0165629479E+01+
*       -3.186173988E+00               0
GRID*                915               0-3.404609228E+00-1.218535775E+02+
*       -2.014321141E+00               0
GRID*                916               02.9836454283E+002.3112076541E+01+
*       -1.918798172E+00               0
GRID*                917               07.2778983117E-01-1.296579268E+02+
*       -3.290257135E+00               0
GRID*                918               04.2849824318E+00-1.291715601E+02+
*       -1.769665140E+00               0
GRID*                919               02.4745650635E+00-1.272071185E+02+
*       3.2491460332E+00               0
GRID*                920               0-1.716559619E+002.1783163341E+01+
*       -2.020068244E+00               0
GRID*                921               0-6.054858048E+002.4306425606E+01+
*       -1.331612496E+00               0
GRID*                922               0-4.586292704E+002.3285827758E+01+
*       -6.879902351E-01               0
GRID*                923               0-3.430368473E+002.4329137969E+01+
*       -4.198412665E-02               0
GRID*                924               0-3.702282919E+00-5.270509834E+01+
*       -6.969736884E-01               0
GRID*                925               0-6.244471322E+002.4935047355E+01+
*       -2.288236966E+00               0
GRID*                926               0-1.982338668E+00-9.860579184E+01+
*       -3.743168892E-01               0
GRID*                927               04.8538462717E-02-9.965427104E+01+
*       2.5584905459E-01               0
GRID*                928               03.5414728775E+00-1.219053377E+02+
*       -3.314791583E+00               0
GRID*                929               03.5326904315E+00-1.238327181E+02+
*       -1.091831720E+00               0
GRID*                930               0-2.354409246E-012.8289639974E+01+
*       -8.900651132E-01               0
GRID*                931               0-9.769594665E-012.8353392414E+01+
*       -2.080282709E+00               0
GRID*                932               04.2764113581E+00-1.236230130E+02+
*       -1.817415360E+00               0
GRID*                933               03.1062703190E+00-9.427169441E+01+
*       -9.987232488E-01               0
GRID*                934               05.7019278717E+002.6639226360E+01+
*       3.9236527605E-01               0
GRID*                935               03.0776369460E+00-9.262068029E+01+
*       -9.575186242E-01               0
GRID*                936               02.7794007743E+00-9.298679787E+01+
*       8.3705825230E-01               0
GRID*                937               02.9371395868E+00-9.122095068E+01+
*       8.1443560412E-01               0
GRID*                938               05.2593993942E+00-1.234280620E+02+
*       -2.646859439E+00               0
GRID*                939               02.3301080305E+00-1.225408818E+02+
*       -2.994737818E+00               0
GRID*                940               02.9255867605E+00-1.238521888E+02+
*       6.5991478322E-01               0
GRID*                941               02.7141519255E+002.2023761794E+01+
*       -1.939455350E+00               0
GRID*                942               03.5831185209E+00-1.250772313E+02+
*       2.2462409308E+00               0
GRID*                943               0-3.795620339E+00-8.013605110E+00+
*       -1.249168247E+00               0
GRID*                944               01.3098907672E-02-8.195910096E+00+
*       4.3897752188E-01               0
GRID*                945               0-2.645394870E+00-4.845956377E+00+
*       -1.071324757E+00               0
GRID*                946               0-2.622127242E+00-4.734736246E+01+
*       1.1001686296E+00               0
GRID*                947               01.5633691940E+00-6.232520000E+01+
*       -5.988171078E-01               0
GRID*                948               03.4686148137E+00-6.310125645E+01+
*       -1.105348085E+00               0
GRID*                949               02.6941270466E+00-6.090290911E+01+
*       -9.530811649E-01               0
GRID*                950               03.4712946371E+00-6.329250675E+01+
*       9.0595099874E-01               0
GRID*                951               03.7308529073E+00-6.160639372E+01+
*       1.2177959148E+00               0
GRID*                952               06.8557086512E-01-6.422797448E+01+
*       1.5957331496E-01               0
GRID*                953               0-3.221084152E+00-1.854720055E+01+
*       -1.038700923E+00               0
GRID*                954               0-6.108024792E+00-1.250617703E+02+
*       2.2159925334E+00               0
GRID*                955               0-4.218469643E+00-1.596649222E+01+
*       -7.904268593E-01               0
GRID*                956               0-4.357445928E+00-1.240098966E+02+
*       3.3017705993E+00               0
GRID*                957               0-3.359717451E+00-1.245809314E+02+
*       2.2939301855E+00               0
GRID*                958               0-3.019434873E+00-6.175232849E+01+
*       9.4860051095E-01               0
GRID*                959               05.4277797900E+00-1.210234913E+02+
*       -1.329530214E+00               0
GRID*                960               06.1228558943E+00-1.223314438E+02+
*       -1.886678024E+00               0
GRID*                961               0-2.403420746E+00-5.661884575E+01+
*       -1.193989260E+00               0
GRID*                962               0-3.742595699E+00-5.485388001E+01+
*       -9.707124586E-01               0
GRID*                963               0-2.706715612E+00-5.400553972E+01+
*       -1.264647151E+00               0
GRID*                964               0-5.173104930E+00-1.218234697E+02+
*       -9.172334754E-01               0
GRID*                965               0-3.781914856E+00-1.223097566E+02+
*       -3.216328730E+00               0
GRID*                966               03.0749520476E+002.1349028516E+01+
*       -3.106799971E+00               0
GRID*                967               03.0845733200E+002.1001275972E+00+
*       -9.715986184E-01               0
GRID*                968               05.7769611634E-013.3297753171E+00+
*       3.4006240370E-01               0
GRID*                969               0-3.906890969E+009.4396135255E+00+
*       -1.128109811E+00               0
GRID*                970               0-1.237222628E+006.9467790268E+00+
*       -9.943668530E-01               0
GRID*                971               0-2.402333398E+006.5166862060E+00+
*       1.2138259846E+00               0
GRID*                972               0-3.868443968E+005.8876669991E+00+
*       -1.057913733E+00               0
GRID*                973               0-2.040572404E+008.1493721934E+00+
*       1.1281221269E+00               0
GRID*                974               0-2.449615420E+00-1.228057893E+01+
*       1.2482438882E+00               0
GRID*                975               0-9.402984929E-03-1.186735937E+01+
*       -1.311685159E-01               0
GRID*                976               09.5446633627E-01-2.050521250E+01+
*       4.8228676130E-01               0
GRID*                977               0-3.894740313E+00-8.744774104E+01+
*       8.2678629882E-01               0
GRID*                978               0-3.910802266E+00-8.685107458E+01+
*       -8.082878002E-01               0
GRID*                979               0-4.175289072E+00-8.517410909E+01+
*       -1.536717917E+00               0
GRID*                980               04.1527285496E+001.8661741985E+01+
*       1.2501797018E+00               0
GRID*                981               0-4.534815764E+002.1033362122E+01+
*       2.3270112853E+00               0
GRID*                982               0-3.089370259E+003.0456367571E+01+
*       2.2004185789E+00               0
GRID*                983               0-1.926534692E+002.9931438151E+01+
*       2.4254549709E+00               0
GRID*                984               0-1.712616050E-01-6.209784858E+00+
*       4.5148577150E-02               0
GRID*                985               0-9.932338103E-012.9713651142E+01+
*       -1.287333869E+00               0
GRID*                986               01.4663745606E-023.1004276601E+01+
*       -2.091927190E+00               0
GRID*                987               0-8.924468419E-012.9528051425E+01+
*       -3.189858213E+00               0
GRID*                988               03.8587212579E+00-4.207055070E+01+
*       1.1892056484E+00               0
GRID*                989               0-3.078653978E+00-1.257792937E+02+
*       -1.166342861E+00               0
GRID*                990               03.3710281256E+00-7.985087005E+01+
*       1.3077763580E+00               0
GRID*                991               02.8948588789E+00-6.682384386E+01+
*       9.4746306261E-01               0
GRID*                992               02.6800478606E+00-6.661074499E+01+
*       -1.085168222E+00               0
GRID*                993               0-8.432574830E-014.3932167078E+00+
*       -5.155506003E-02               0
GRID*                994               02.2702159810E+00-5.557371635E+01+
*       1.1088154715E+00               0
GRID*                995               02.1821226582E+00-5.198984129E+01+
*       1.2360880134E+00               0
GRID*                996               02.1959300973E+00-5.519447241E+01+
*       -1.169230915E+00               0
GRID*                997               0-3.117250508E+00-1.255759899E+02+
*       1.4038793057E+00               0
GRID*                998               03.5657152718E+00-8.078222326E+01+
*       -1.057700738E+00               0
GRID*                999               02.5076780306E+00-7.950096451E+01+
*       -1.017343917E+00               0
GRID*               1000               01.6688669688E+00-8.147572805E+01+
*       1.1551513845E+00               0
GRID*               1001               01.6529388000E+00-8.170878327E+01+
*       -1.380811787E+00               0
GRID*               1002               0-2.935157175E+002.3318726188E+01+
*       1.1034635399E+00               0
GRID*               1003               03.9896247884E-02-2.095981561E+00+
*       3.4795294172E-01               0
GRID*               1004               02.2909868393E+002.8741947832E+01+
*       1.3928546641E+00               0
GRID*               1005               03.3640302567E+002.9899899756E+01+
*       2.2552127082E+00               0
GRID*               1006               03.3945752425E+00-1.068067398E+02+
*       1.1095159782E+00               0
GRID*               1007               0-3.877196889E+001.5729160732E+01+
*       -1.022995619E+00               0
GRID*               1008               0-3.144193432E+002.0148631484E+01+
*       -2.435605836E+00               0
GRID*               1009               0-2.302905863E+001.0603487411E+01+
*       9.6576904012E-01               0
GRID*               1010               0-3.621874895E+00-7.439350631E+01+
*       -1.449409145E+00               0
GRID*               1011               0-2.872600611E+00-1.141140874E+02+
*       -9.167033368E-01               0
GRID*               1012               03.7043276932E+00-8.420256772E+01+
*       1.0243460769E+00               0
GRID*               1013               03.6866953686E+00-8.218546292E+01+
*       1.0730982844E+00               0
GRID*               1014               0-6.988857712E-01-1.143675756E+02+
*       8.3866805439E-01               0
GRID*               1015               0-1.611986940E+00-1.156295887E+02+
*       1.0794452736E+00               0
GRID*               1016               0-9.693570376E-01-1.151613093E+02+
*       -1.211352472E+00               0
GRID*               1017               02.5970419971E+002.7248642988E+01+
*       3.1128484054E+00               0
GRID*               1018               01.5043536907E+00-8.351514464E+01+
*       1.2961779368E+00               0
GRID*               1019               03.5779661724E+001.5935898554E+01+
*       -1.362834248E+00               0
GRID*               1020               0-3.834644326E+002.5733439926E+01+
*       -1.034546999E-01               0
GRID*               1021               0-4.660219955E+002.6111769035E+01+
*       1.5004359445E+00               0
GRID*               1022               0-3.335792127E+002.6117851048E+01+
*       1.0897922083E+00               0
GRID*               1023               0-5.266856973E+002.7867080274E+01+
*       1.8221065930E+00               0
GRID*               1024               0-5.985779108E+002.6419965342E+01+
*       1.4133606956E+00               0
GRID*               1025               0-1.650413864E+002.2266517932E+01+
*       -1.444615752E-01               0
GRID*               1026               0-1.435836090E+00-1.279604217E+02+
*       -1.104162145E+00               0
GRID*               1027               0-5.381232001E-012.0471469047E+01+
*       3.2016394198E+00               0
GRID*               1028               06.0820567528E+002.4776931183E+01+
*       2.3974501095E+00               0
GRID*               1029               03.3556329303E+002.5247010635E+01+
*       -9.890803108E-01               0
GRID*               1030               0-2.751403150E+00-1.367297214E+01+
*       -1.130360835E+00               0
GRID*               1031               0-2.476526848E+00-1.391344851E+01+
*       1.4506776923E+00               0
GRID*               1032               0-3.878728077E+00-1.350572066E+01+
*       1.0407279517E+00               0
GRID*               1033               0-3.987353673E+00-2.205758899E+01+
*       1.1091786203E+00               0
GRID*               1034               01.7173112348E+00-1.169851638E+02+
*       1.3250708139E+00               0
GRID*               1035               0-3.944217334E+00-1.957886367E+01+
*       1.0517607042E+00               0
GRID*               1036               0-2.479901063E+00-2.083203052E+01+
*       8.1778552403E-01               0
GRID*               1037               0-4.090642837E-01-4.550724590E+01+
*       -6.655012977E-01               0
GRID*               1038               01.0594229169E-01-4.426399908E+01+
*       1.1409479211E+00               0
GRID*               1039               03.0468098610E+00-1.237999712E+02+
*       1.9635634160E+00               0
GRID*               1040               0-3.821300487E+00-5.322016064E+01+
*       1.2269055319E+00               0
GRID*               1041               0-1.331338634E+00-5.293973635E+01+
*       -1.075367288E+00               0
GRID*               1042               03.2539610529E+002.4951115432E+01+
*       3.0998664302E+00               0
GRID*               1043               0-1.834779608E+00-5.097974510E+01+
*       1.0744416034E+00               0
GRID*               1044               0-3.737632193E+00-5.124753739E+01+
*       1.1492357288E+00               0
GRID*               1045               02.8151259555E-02-5.607864776E+01+
*       1.1629334612E+00               0
GRID*               1046               0-8.405466398E-011.6607507568E+01+
*       4.9821775091E-01               0
GRID*               1047               03.5620315694E+00-8.568502567E+01+
*       1.3490258745E+00               0
GRID*               1048               01.1689970398E+001.5742867348E+01+
*       -1.314363927E+00               0
GRID*               1049               01.3488956702E-01-1.114024307E+02+
*       -3.063826166E-02               0
GRID*               1050               0-2.409179487E+00-4.494028982E+01+
*       -9.684584388E-01               0
GRID*               1051               05.7925418790E+002.6766519731E+01+
*       2.0087660741E+00               0
GRID*               1052               0-2.599296899E+00-1.042769314E+01+
*       -1.033816150E+00               0
GRID*               1053               03.8253486680E+00-9.603027417E+01+
*       3.1243291724E-01               0
GRID*               1054               04.0075813621E+00-9.737270089E+01+
*       6.2724883194E-01               0
GRID*               1055               03.8457500232E+00-1.050733697E+02+
*       -8.800068339E-01               0
GRID*               1056               0-2.913127796E+00-1.171504855E+02+
*       1.3180752531E+00               0
GRID*               1057               02.6046803583E+002.6872377903E+01+
*       9.2742602746E-01               0
GRID*               1058               0-2.558407988E+002.7038365435E+01+
*       1.0757376310E+00               0
GRID*               1059               03.7835925771E+00-1.274891815E+02+
*       3.0937354948E+00               0
GRID*               1060               02.9847650857E+00-1.212945136E+02+
*       3.2504159164E+00               0
GRID*               1061               0-3.402220597E+002.4618080513E+01+
*       1.0207234314E+00               0
GRID*               1062               03.1279049186E+002.5795610782E+01+
*       4.6818642557E-01               0
GRID*               1063               03.4702459724E+002.5490918020E+01+
*       2.0786562420E+00               0
GRID*               1064               0-1.957197945E+00-5.803605130E+01+
*       1.3693237830E+00               0
GRID*               1065               01.2578230386E+002.1730830094E+01+
*       -3.314848695E+00               0
GRID*               1066               0-2.916559586E+00-6.563788029E+00+
*       -1.138449290E+00               0
GRID*               1067               0-2.601237116E+00-8.778071825E+00+
*       -1.151857552E+00               0
GRID*               1068               01.2963341280E+00-7.134091625E+00+
*       1.1443538170E+00               0
GRID*               1069               0-2.748956267E+00-1.796673990E+01+
*       8.3441157203E-01               0
GRID*               1070               03.9525288945E-02-3.272510615E+01+
*       -1.309310388E+00               0
GRID*               1071               0-2.868765720E-01-1.131410576E+02+
*       -8.323111689E-01               0
GRID*               1072               02.3573167096E+00-4.602141226E+01+
*       1.2217897070E+00               0
GRID*               1073               0-2.857532166E+00-8.368237561E+01+
*       -1.389644987E+00               0
GRID*               1074               02.5643690525E+002.7026189213E+01+
*       -3.460464407E+00               0
GRID*               1075               01.4752394887E+002.7967544157E+01+
*       -1.054967540E+00               0
GRID*               1076               04.9278815310E-01-5.779493967E+01+
*       -1.028070477E+00               0
GRID*               1077               03.6102012528E+00-1.239745128E+02+
*       3.2238160453E+00               0
GRID*               1078               0-3.136535816E+00-1.212959383E+02+
*       -3.102474254E+00               0
GRID*               1079               04.5025786394E+00-1.286369355E+02+
*       -1.247909784E+00               0
GRID*               1080               02.4891199746E+002.2450198497E+01+
*       3.1461825586E+00               0
GRID*               1081               0-2.595725697E-01-1.055854738E+02+
*       -1.322506101E+00               0
GRID*               1082               0-2.079653342E+00-1.196175990E+02+
*       -2.471412511E+00               0
GRID*               1083               01.7350644316E-01-1.285422506E+02+
*       -3.237780382E+00               0
GRID*               1084               03.6633787543E+00-1.171238296E+02+
*       1.5222724764E+00               0
GRID*               1085               0-1.569655179E+00-1.063635675E+02+
*       9.7481843998E-01               0
GRID*               1086               02.0208329091E+003.0703772609E+01+
*       -2.295206456E+00               0
GRID*               1087               04.6835643092E+00-1.201875612E+02+
*       -1.997172628E-01               0
GRID*               1088               0-3.223942890E+00-1.155851100E+02+
*       9.8124742522E-01               0
GRID*               1089               0-2.771413279E+00-1.532351775E+01+
*       -8.232713371E-01               0
GRID*               1090               0-2.709371653E+00-1.615237461E+01+
*       1.1629955996E+00               0
GRID*               1091               02.4447225412E+00-9.675431475E+01+
*       8.5186834652E-01               0
GRID*               1092               03.9058255967E+00-1.294042736E+02+
*       8.5014074597E-01               0
GRID*               1093               01.1004185116E-01-7.459271873E+01+
*       -3.984260111E-01               0
GRID*               1094               0-1.748522012E+00-1.205053571E+02+
*       -3.188368092E+00               0
GRID*               1095               02.6156377314E+00-1.269374925E+02+
*       -1.303614554E+00               0
GRID*               1096               04.6112829738E+002.6049880070E+01+
*       3.1809822827E+00               0
GRID*               1097               0-6.652804328E-01-8.479962392E+01+
*       4.1065395865E-01               0
GRID*               1098               0-2.040686549E+00-4.694561319E+01+
*       -1.422275357E+00               0
GRID*               1099               0-4.114684059E+001.4129959111E+01+
*       -1.160726982E+00               0
GRID*               1100               02.1404651095E-01-2.884346613E+01+
*       -6.637066903E-01               0
GRID*               1101               0-2.750782650E+00-2.051792724E+01+
*       -9.735659599E-01               0
GRID*               1102               03.3322997369E-01-5.123884790E+01+
*       1.1325976135E+00               0
GRID*               1103               0-1.260298586E+00-5.030387403E+01+
*       -1.189812924E+00               0
GRID*               1104               0-4.151479853E+00-8.138835282E+01+
*       7.0277428031E-01               0
GRID*               1105               0-2.796524156E+004.9194053909E+00+
*       -1.293786605E+00               0
GRID*               1106               03.6537360412E+00-1.166135743E+02+
*       2.0714800572E-01               0
GRID*               1107               02.3918500981E+00-1.157346959E+02+
*       1.1875753993E+00               0
GRID*               1108               0-2.788751956E+00-7.485064228E+01+
*       1.1863442186E+00               0
GRID*               1109               02.4173814059E+00-5.078769334E+01+
*       -8.038108454E-01               0
GRID*               1110               03.9675903662E+00-5.134704760E+01+
*       5.4852285227E-01               0
GRID*               1111               03.3221314482E+00-4.980441133E+01+
*       1.1823191974E+00               0
GRID*               1112               03.1815454323E+002.6009748034E+01+
*       -3.008393380E+00               0
GRID*               1113               01.7381106434E+00-1.007211326E+02+
*       -1.364865440E+00               0
GRID*               1114               01.7359766711E+00-3.704658458E+01+
*       1.3312360747E+00               0
GRID*               1115               02.0770313434E+00-4.601165612E+01+
*       -1.140058733E+00               0
GRID*               1116               03.9499655258E+00-1.008620204E+02+
*       9.1529034789E-01               0
GRID*               1117               03.7570415211E+00-9.918546406E+01+
*       1.1555833727E+00               0
GRID*               1118               02.2308794740E+00-1.004919284E+02+
*       8.3913570848E-01               0
GRID*               1119               0-8.731616694E-01-1.939531057E+01+
*       -1.918219287E-01               0
GRID*               1120               01.8973052642E+00-1.275499867E+02+
*       2.1707031682E+00               0
GRID*               1121               0-1.247789236E+00-1.680931487E+01+
*       -6.059871061E-01               0
GRID*               1122               04.1435554810E-01-1.841744647E+01+
*       -4.949973905E-01               0
GRID*               1123               03.9158443024E-01-1.620254583E+01+
*       -2.678218986E-01               0
GRID*               1124               0-2.906901795E+00-9.144410090E+01+
*       -1.073076765E+00               0
GRID*               1125               02.8812758036E+00-6.863570431E+01+
*       7.8386320366E-01               0
GRID*               1126               0-1.743593845E+00-1.060953926E+02+
*       -1.250553343E+00               0
GRID*               1127               0-6.561592253E-012.6928284208E-01+
*       6.6839014077E-01               0
GRID*               1128               01.3919049818E-012.8549382111E+01+
*       3.6565371057E+00               0
GRID*               1129               03.2843284176E+00-2.771794297E+01+
*       -1.078761800E+00               0
GRID*               1130               02.8330080043E+00-6.484607262E+01+
*       -9.637437755E-01               0
GRID*               1131               0-2.835250870E+00-7.891403442E-01+
*       1.1394342656E+00               0
GRID*               1132               03.1823254334E+002.6150763893E+01+
*       3.0417970269E+00               0
GRID*               1133               03.7749543881E+00-3.171903768E+01+
*       -1.208573441E+00               0
GRID*               1134               09.9523615720E-01-3.147949834E+01+
*       1.0441862926E+00               0
GRID*               1135               01.8628160891E+00-3.146484317E+01+
*       -9.792348853E-01               0
GRID*               1136               03.6941306504E+00-2.983275667E+01+
*       -1.258952238E+00               0
GRID*               1137               03.1179713263E+002.3648192796E+01+
*       3.1836408659E+00               0
GRID*               1138               0-2.467299153E+00-1.272998929E+02+
*       3.1420172743E+00               0
GRID*               1139               0-3.717694934E+00-1.282000671E+02+
*       3.1454146364E+00               0
GRID*               1140               02.1060854907E+00-4.093465819E+01+
*       1.2863416750E+00               0
GRID*               1141               0-2.161433139E-01-5.802467030E+01+
*       1.1177422959E+00               0
GRID*               1142               0-2.865226066E+002.5149182038E+00+
*       -1.264799055E+00               0
GRID*               1143               01.9179828157E+00-9.889206418E+01+
*       8.7416771374E-01               0
GRID*               1144               08.0788998811E-01-4.897340746E+01+
*       2.2422441331E-01               0
GRID*               1145               03.0770878905E+00-6.509302067E+01+
*       1.1087116342E+00               0
GRID*               1146               07.7843520332E-01-6.656255342E+01+
*       3.6738236143E-01               0
GRID*               1147               0-3.869658563E+002.7938972903E+00+
*       1.1328283189E+00               0
GRID*               1148               02.6892946372E+001.1375461608E+01+
*       -1.419093132E+00               0
GRID*               1149               01.8789332863E+00-2.992966450E+01+
*       -8.973164364E-01               0
GRID*               1150               0-7.622727015E-01-4.888129928E+01+
*       1.1878657320E-02               0
GRID*               1151               03.0145827841E-01-4.727353595E+01+
*       1.0458187374E+00               0
GRID*               1152               01.2340782566E+00-2.942727634E+01+
*       1.1223690617E+00               0
GRID*               1153               0-5.715818397E+00-1.265640602E+02+
*       -3.574081663E+00               0
GRID*               1154               05.7166852969E+00-1.234355174E+02+
*       -3.573134368E+00               0
GRID*               1155               0-3.286047134E+00-1.201230457E+02+
*       -3.619644204E+00               0
GRID*               1156               0-5.716927385E+00-1.234362679E+02+
*       -3.573097693E+00               0
GRID*               1157               0-6.088152592E+00-1.250002900E+02+
*       -3.411847233E+00               0
GRID*               1158               0-5.015463977E+00-1.220027325E+02+
*       -3.657370360E+00               0
GRID*               1159               0-4.440698033E+00-1.208395281E+02+
*       -3.415398795E+00               0
GRID*               1160               03.3005941176E+00-1.201324842E+02+
*       -3.618714482E+00               0
GRID*               1161               05.0206608333E+00-1.220108598E+02+
*       -3.656804842E+00               0
GRID*               1162               04.4256885566E+00-1.208200350E+02+
*       -3.412119387E+00               0
GRID*               1163               0-9.160167702E-01-1.192226722E+02+
*       -3.652000263E+00               0
GRID*               1164               0-2.269730088E+00-1.193439224E+02+
*       -3.405617407E+00               0
GRID*               1165               06.4047511826E-01-1.191089067E+02+
*       -3.575059847E+00               0
GRID*               1166               02.1978668044E+00-1.193094529E+02+
*       -3.399022650E+00               0
GRID*               1167               03.3074634484E+00-1.298648252E+02+
*       -3.617090727E+00               0
GRID*               1168               0-3.279962263E+00-1.298802362E+02+
*       -3.620300808E+00               0
GRID*               1169               0-5.024082058E+00-1.279909611E+02+
*       -3.652933542E+00               0
GRID*               1170               0-4.426195255E+00-1.291798688E+02+
*       -3.411815352E+00               0
GRID*               1171               0-6.393125705E-01-1.308917257E+02+
*       -3.574542378E+00               0
GRID*               1172               0-2.233427119E+00-1.306759800E+02+
*       -3.400842221E+00               0
GRID*               1173               09.1632342235E-01-1.307762537E+02+
*       -3.653011885E+00               0
GRID*               1174               02.2352345607E+00-1.306699461E+02+
*       -3.404538954E+00               0
GRID*               1175               05.7157373932E+00-1.265637453E+02+
*       -3.574242462E+00               0
GRID*               1176               06.0879688135E+00-1.250001026E+02+
*       -3.412031018E+00               0
GRID*               1177               05.0245187769E+00-1.279898022E+02+
*       -3.653152997E+00               0
GRID*               1178               04.4275529004E+00-1.291797572E+02+
*       -3.410902448E+00               0
GRID*               1179               0-5.000000000E+00-5.568685045E+01+
*       1.3152748464E+00               0
GRID*               1180               0-5.000000000E+00-5.489842578E+01+
*       -1.058903395E-03               0
GRID*               1181               0-5.000000000E+00-5.409250453E+01+
*       -1.316016812E+00               0
GRID*               1182               0-5.000000000E+00-8.380648340E+01+
*       -1.334814899E+00               0
GRID*               1183               0-5.000000000E+00-8.315596194E+01+
*       2.2343736213E-01               0
GRID*               1184               0-5.000000000E+00-8.214725069E+01+
*       1.3768348078E+00               0
GRID*               1185               0-5.000000000E+00-6.457954509E+01+
*       -1.284110556E+00               0
GRID*               1186               0-5.000000000E+00-6.381952544E+01+
*       1.5560969274E-02               0
GRID*               1187               0-5.000000000E+00-6.306602880E+01+
*       1.3228843467E+00               0
GRID*               1188               0-5.000000000E+00-5.721785779E+01+
*       -1.316418281E+00               0
GRID*               1189               0-5.000000000E+00-5.644532453E+01+
*       -2.082401824E-03               0
GRID*               1190               0-5.000000000E+00-5.565151448E+01+
*       -1.432267058E+00               0
GRID*               1191               0-5.000000000E+00-5.797933643E+01+
*       -6.252621521E-03               0
GRID*               1192               0-5.000000000E+00-5.874884474E+01+
*       1.2915174929E+00               0
GRID*               1193               0-5.000000000E+00-5.724369501E+01+
*       1.4268821919E+00               0
GRID*               1194               0-5.000000000E+00-6.006418096E+01+
*       1.2957728676E+00               0
GRID*               1195               0-5.000000000E+00-6.153987988E+01+
*       1.4343243907E+00               0
GRID*               1196               0-5.000000000E+00-5.945115070E+01+
*       -1.536022243E-02               0
GRID*               1197               0-5.000000000E+00-6.086826568E+01+
*       2.1630349953E-02               0
GRID*               1198               0-5.000000000E+00-6.232581972E+01+
*       1.4565139887E-02               0
GRID*               1199               0-5.000000000E+00-6.158077310E+01+
*       -1.286086124E+00               0
GRID*               1200               0-5.000000000E+00-6.308223239E+01+
*       -1.418027044E+00               0
GRID*               1201               0-5.000000000E+00-6.026141931E+01+
*       -1.291052603E+00               0
GRID*               1202               0-5.000000000E+00-5.877198958E+01+
*       -1.430421539E+00               0
GRID*               1203               0-5.000000000E+00-6.884055613E+01+
*       -1.279202306E+00               0
GRID*               1204               0-5.000000000E+00-6.809582923E+01+
*       1.2147901400E-02               0
GRID*               1205               0-5.000000000E+00-6.735696839E+01+
*       1.2977826374E+00               0
GRID*               1206               0-5.000000000E+00-6.458915880E+01+
*       1.4352815092E+00               0
GRID*               1207               0-5.000000000E+00-6.605846166E+01+
*       1.2977959962E+00               0
GRID*               1208               0-5.000000000E+00-6.527022820E+01+
*       2.3826642515E-02               0
GRID*               1209               0-5.000000000E+00-6.667028072E+01+
*       -7.857248547E-03               0
GRID*               1210               0-5.000000000E+00-6.589116431E+01+
*       -1.287781612E+00               0
GRID*               1211               0-5.000000000E+00-6.736206165E+01+
*       -1.420339029E+00               0
GRID*               1212               0-5.000000000E+00-7.313100047E+01+
*       -1.361525450E+00               0
GRID*               1213               0-5.000000000E+00-7.246832548E+01+
*       2.0122893070E-01               0
GRID*               1214               0-5.000000000E+00-7.150923211E+01+
*       1.3843224584E+00               0
GRID*               1215               0-5.000000000E+00-6.882522268E+01+
*       1.4381012836E+00               0
GRID*               1216               0-5.000000000E+00-7.027566421E+01+
*       1.3271656936E+00               0
GRID*               1217               0-5.000000000E+00-6.952048666E+01+
*       4.3559151382E-02               0
GRID*               1218               0-5.000000000E+00-7.092082619E+01+
*       5.4263088408E-02               0
GRID*               1219               0-5.000000000E+00-7.014764095E+01+
*       -1.269939097E+00               0
GRID*               1220               0-5.000000000E+00-7.163561635E+01+
*       -1.398528054E+00               0
GRID*               1221               0-5.000000000E+00-7.510388554E+01+
*       -1.380613728E+00               0
GRID*               1222               0-5.000000000E+00-7.407455261E+01+
*       -2.388084905E-01               0
GRID*               1223               0-5.000000000E+00-7.348179403E+01+
*       1.3257379442E+00               0
GRID*               1224               0-5.000000000E+00-7.249964494E+01+
*       1.6189987581E+00               0
GRID*               1225               0-5.000000000E+00-7.416607398E+01+
*       -1.629375118E+00               0
GRID*               1226               0-5.000000000E+00-7.623231612E+01+
*       -1.289317562E+00               0
GRID*               1227               0-5.000000000E+00-7.545510047E+01+
*       -6.864684950E-02               0
GRID*               1228               0-5.000000000E+00-7.469580408E+01+
*       1.2270820983E+00               0
GRID*               1229               0-5.000000000E+00-8.100441438E+01+
*       1.2910556766E+00               0
GRID*               1230               0-5.000000000E+00-8.173973537E+01+
*       4.6040834386E-02               0
GRID*               1231               0-5.000000000E+00-8.255822891E+01+
*       -1.255537606E+00               0
GRID*               1232               0-5.000000000E+00-7.738716371E+01+
*       -1.258870724E+00               0
GRID*               1233               0-5.000000000E+00-7.670264135E+01+
*       8.8025103619E-03               0
GRID*               1234               0-5.000000000E+00-7.590884980E+01+
*       1.2679704458E+00               0
GRID*               1235               0-5.000000000E+00-7.728304974E+01+
*       1.4227599812E+00               0
GRID*               1236               0-5.000000000E+00-7.866095092E+01+
*       1.2920802709E+00               0
GRID*               1237               0-5.000000000E+00-7.984262171E+01+
*       1.2714959083E+00               0
GRID*               1238               0-5.000000000E+00-7.796614962E+01+
*       2.8029594549E-02               0
GRID*               1239               0-5.000000000E+00-7.919956839E+01+
*       9.2171784536E-03               0
GRID*               1240               0-5.000000000E+00-8.044034208E+01+
*       -3.131514217E-03               0
GRID*               1241               0-5.000000000E+00-7.973685633E+01+
*       -1.279549886E+00               0
GRID*               1242               0-5.000000000E+00-7.854953534E+01+
*       -1.256372974E+00               0
GRID*               1243               0-5.000000000E+00-8.113461559E+01+
*       -1.408050384E+00               0
GRID*               1244               0-5.000000000E+00-9.739637816E+01+
*       -1.286287577E+00               0
GRID*               1245               0-5.000000000E+00-9.655949481E+01+
*       1.2067923784E-02               0
GRID*               1246               0-5.000000000E+00-9.572605215E+01+
*       1.3201537404E+00               0
GRID*               1247               0-5.000000000E+00-9.277854434E+01+
*       1.2834472434E+00               0
GRID*               1248               0-5.000000000E+00-9.365736802E+01+
*       1.4658693993E-02               0
GRID*               1249               0-5.000000000E+00-9.443229557E+01+
*       -1.289163825E+00               0
GRID*               1250               0-5.000000000E+00-9.420536710E+01+
*       1.4299839882E+00               0
GRID*               1251               0-5.000000000E+00-9.508407125E+01+
*       1.0573057879E-02               0
GRID*               1252               0-5.000000000E+00-9.592423574E+01+
*       -1.419675553E+00               0
GRID*               1253               0-5.000000000E+00-8.570794105E+01+
*       -1.376888066E+00               0
GRID*               1254               0-5.000000000E+00-8.468405043E+01+
*       -2.301138504E-01               0
GRID*               1255               0-5.000000000E+00-8.405181982E+01+
*       1.3315244881E+00               0
GRID*               1256               0-5.000000000E+00-8.308190657E+01+
*       1.6216703859E+00               0
GRID*               1257               0-5.000000000E+00-8.478819173E+01+
*       -1.622264500E+00               0
GRID*               1258               0-5.000000000E+00-8.682447098E+01+
*       -1.289021709E+00               0
GRID*               1259               0-5.000000000E+00-8.603118421E+01+
*       -6.731068819E-02               0
GRID*               1260               0-5.000000000E+00-8.524700825E+01+
*       1.2280249861E+00               0
GRID*               1261               0-5.000000000E+00-9.155735502E+01+
*       1.2561157517E+00               0
GRID*               1262               0-5.000000000E+00-9.231255385E+01+
*       -2.763409091E-02               0
GRID*               1263               0-5.000000000E+00-9.314319935E+01+
*       -1.294217932E+00               0
GRID*               1264               0-5.000000000E+00-8.797394850E+01+
*       -1.260790444E+00               0
GRID*               1265               0-5.000000000E+00-8.726728263E+01+
*       7.5178559519E-03               0
GRID*               1266               0-5.000000000E+00-8.644932946E+01+
*       1.2673076478E+00               0
GRID*               1267               0-5.000000000E+00-8.781542515E+01+
*       1.4208799768E+00               0
GRID*               1268               0-5.000000000E+00-8.919496550E+01+
*       1.2869853606E+00               0
GRID*               1269               0-5.000000000E+00-9.038043357E+01+
*       1.2583809358E+00               0
GRID*               1270               0-5.000000000E+00-8.852661527E+01+
*       2.3032500032E-02               0
GRID*               1271               0-5.000000000E+00-8.976027321E+01+
*       -2.336329670E-03               0
GRID*               1272               0-5.000000000E+00-9.100682106E+01+
*       -3.138662201E-02               0
GRID*               1273               0-5.000000000E+00-9.032244131E+01+
*       -1.290822769E+00               0
GRID*               1274               0-5.000000000E+00-8.913480219E+01+
*       -1.261359465E+00               0
GRID*               1275               0-5.000000000E+00-9.172455750E+01+
*       -1.430153422E+00               0
GRID*               1276               0-5.000000000E+00-1.014718828E+02+
*       -1.281562533E+00               0
GRID*               1277               0-5.000000000E+00-1.006126988E+02+
*       -2.646111865E-02               0
GRID*               1278               0-5.000000000E+00-9.989261115E+01+
*       1.2586830285E+00               0
GRID*               1279               0-5.000000000E+00-9.722835916E+01+
*       1.4323254402E+00               0
GRID*               1280               0-5.000000000E+00-9.867728718E+01+
*       1.2877924595E+00               0
GRID*               1281               0-5.000000000E+00-9.798279500E+01+
*       1.7668288952E-02               0
GRID*               1282               0-5.000000000E+00-9.932513454E+01+
*       -2.153567711E-02               0
GRID*               1283               0-5.000000000E+00-9.868165461E+01+
*       -1.292130761E+00               0
GRID*               1284               0-5.000000000E+00-1.001125857E+02+
*       -1.426561357E+00               0
GRID*               1285               0-5.000000000E+00-1.026068040E+02+
*       -1.253304653E+00               0
GRID*               1286               0-5.000000000E+00-1.017974736E+02+
*       -4.955275031E-03               0
GRID*               1287               0-5.000000000E+00-1.010384032E+02+
*       1.2526723449E+00               0
GRID*               1288               0-5.000000000E+00-1.036888313E+02+
*       -1.246033088E+00               0
GRID*               1289               0-5.000000000E+00-1.029053933E+02+
*       3.5311681295E-03               0
GRID*               1290               0-5.000000000E+00-1.021408270E+02+
*       1.2536929325E+00               0
GRID*               1291               0-5.000000000E+00-1.047540467E+02+
*       -1.244109821E+00               0
GRID*               1292               0-5.000000000E+00-1.039805357E+02+
*       5.9552301970E-03               0
GRID*               1293               0-5.000000000E+00-1.032157936E+02+
*       1.2540659758E+00               0
GRID*               1294               0-5.000000000E+00-1.058135476E+02+
*       -1.243680428E+00               0
GRID*               1295               0-5.000000000E+00-1.050427959E+02+
*       6.4184755737E-03               0
GRID*               1296               0-5.000000000E+00-1.042776613E+02+
*       1.2538532773E+00               0
GRID*               1297               0-5.000000000E+00-1.068710935E+02+
*       -1.243635078E+00               0
GRID*               1298               0-5.000000000E+00-1.061002081E+02+
*       6.3807281095E-03               0
GRID*               1299               0-5.000000000E+00-1.053339951E+02+
*       1.2535640114E+00               0
GRID*               1300               0-5.000000000E+00-1.079279668E+02+
*       -1.243663887E+00               0
GRID*               1301               0-5.000000000E+00-1.071558566E+02+
*       6.2736883149E-03               0
GRID*               1302               0-5.000000000E+00-1.063881446E+02+
*       1.2533581928E+00               0
GRID*               1303               0-5.000000000E+00-1.089845979E+02+
*       -1.243694565E+00               0
GRID*               1304               0-5.000000000E+00-1.082108747E+02+
*       6.1924552436E-03               0
GRID*               1305               0-5.000000000E+00-1.074414686E+02+
*       1.2532379391E+00               0
GRID*               1306               0-5.000000000E+00-1.100411291E+02+
*       -1.243717200E+00               0
GRID*               1307               0-5.000000000E+00-1.092656639E+02+
*       6.1411568432E-03               0
GRID*               1308               0-5.000000000E+00-1.084944875E+02+
*       1.2531724604E+00               0
GRID*               1309               0-5.000000000E+00-1.110976085E+02+
*       -1.243733983E+00               0
GRID*               1310               0-5.000000000E+00-1.103203632E+02+
*       6.1083992320E-03               0
GRID*               1311               0-5.000000000E+00-1.095473927E+02+
*       1.2531363309E+00               0
GRID*               1312               0-5.000000000E+00-1.121538592E+02+
*       -1.243434982E+00               0
GRID*               1313               0-5.000000000E+00-1.113748807E+02+
*       6.3035821532E-03               0
GRID*               1314               0-5.000000000E+00-1.106002041E+02+
*       1.2531883151E+00               0
GRID*               1315               0-5.000000000E+00-1.132202731E+02+
*       -1.252080947E+00               0
GRID*               1316               0-5.000000000E+00-1.124379883E+02+
*       6.7996130759E-04               0
GRID*               1317               0-5.000000000E+00-1.116563930E+02+
*       1.2517045690E+00               0
GRID*               1318               0-5.000000000E+00-1.142997607E+02+
*       -1.253268355E+00               0
GRID*               1319               0-5.000000000E+00-1.135139449E+02+
*       3.2018592448E-03               0
GRID*               1320               0-5.000000000E+00-1.127188365E+02+
*       1.2538497557E+00               0
GRID*               1321               0-5.000000000E+00-1.154174877E+02+
*       -1.266483056E+00               0
GRID*               1322               0-5.000000000E+00-1.146359929E+02+
*       -2.802589381E-03               0
GRID*               1323               0-5.000000000E+00-1.138051985E+02+
*       1.2552516397E+00               0
GRID*               1324               0-5.000000000E+00-1.165860884E+02+
*       -1.298672919E+00               0
GRID*               1325               0-5.000000000E+00-1.158477906E+02+
*       -8.344654794E-03               0
GRID*               1326               0-5.000000000E+00-1.149520587E+02+
*       1.2728756549E+00               0
GRID*               1327               0-5.000000000E+00-1.163383259E+02+
*       1.3824699740E+00               0
GRID*               1328               0-5.000000000E+00-1.171754663E+02+
*       -9.037309812E-02               0
GRID*               1329               0-5.000000000E+00-1.180008636E+02+
*       1.1459316112E+00               0
GRID*               1330               0-5.000000000E+00-1.178077079E+02+
*       -1.370082708E+00               0
GRID*               1331               0-5.000000000E+00-1.184557087E+02+
*       -3.025199329E-01               0
GRID*               1332               0-5.000000000E+00-1.311168129E+01+
*       -1.279573249E+00               0
GRID*               1333               0-5.000000000E+00-1.225991372E+01+
*       -9.084139585E-03               0
GRID*               1334               0-5.000000000E+00-1.152145693E+01+
*       1.2925309798E+00               0
GRID*               1335               0-5.000000000E+00-2.219229209E+00+
*       1.3359247047E+00               0
GRID*               1336               0-5.000000000E+00-1.634649775E+00+
*       -2.245209008E-01               0
GRID*               1337               0-5.000000000E+00-6.162689886E-01+
*       -1.376306870E+00               0
GRID*               1338               0-5.000000000E+00-2.664467442E+00+
*       -1.357148189E+00               0
GRID*               1339               0-5.000000000E+00-3.313972275E+00+
*       2.1200656904E-01               0
GRID*               1340               0-5.000000000E+00-4.287193414E+00+
*       1.4125654186E+00               0
GRID*               1341               0-5.000000000E+00-3.232343178E+00+
*       1.6275969190E+00               0
GRID*               1342               0-5.000000000E+00-1.605172863E+00+
*       -1.624692342E+00               0
GRID*               1343               0-5.000000000E+00-1.082205953E+01+
*       -4.330074429E-03               0
GRID*               1344               0-5.000000000E+00-1.011772458E+01+
*       -1.314645599E+00               0
GRID*               1345               0-5.000000000E+00-1.165771842E+01+
*       -1.426653082E+00               0
GRID*               1346               0-5.000000000E+00-8.549530089E+00+
*       1.2952526054E+00               0
GRID*               1347               0-5.000000000E+00-9.328204011E+00+
*       -4.217315084E-03               0
GRID*               1348               0-5.000000000E+00-1.003245538E+01+
*       1.4239027287E+00               0
GRID*               1349               0-5.000000000E+00-5.762372131E+00+
*       1.4630568556E+00               0
GRID*               1350               0-5.000000000E+00-7.237107044E+00+
*       1.3059150049E+00               0
GRID*               1351               0-5.000000000E+00-4.964828282E+00+
*       8.0164234653E-02               0
GRID*               1352               0-5.000000000E+00-6.445293497E+00+
*       4.5684770729E-02               0
GRID*               1353               0-5.000000000E+00-7.866767715E+00+
*       -5.891917987E-03               0
GRID*               1354               0-5.000000000E+00-5.743214957E+00+
*       -1.265490634E+00               0
GRID*               1355               0-5.000000000E+00-4.206316642E+00+
*       -1.392679779E+00               0
GRID*               1356               0-5.000000000E+00-7.076587151E+00+
*       -1.281399227E+00               0
GRID*               1357               0-5.000000000E+00-8.574739624E+00+
*       -1.426815481E+00               0
GRID*               1358               0-5.000000000E+003.1848703033E+00+
*       1.3856149574E+00               0
GRID*               1359               0-5.000000000E+004.1489577333E+00+
*       2.0546322412E-01               0
GRID*               1360               0-5.000000000E+004.8188517438E+00+
*       -1.360360884E+00               0
GRID*               1361               0-5.000000000E+001.8408992378E+00+
*       -1.271697583E+00               0
GRID*               1362               0-5.000000000E+002.6096078677E+00+
*       5.1973705966E-02               0
GRID*               1363               0-5.000000000E+003.3191037090E+00+
*       -1.398183878E+00               0
GRID*               1364               0-5.000000000E+00-1.380776354E-01+
*       -3.477278260E-02               0
GRID*               1365               0-5.000000000E+001.2316171449E+00+
*       2.8584431171E-02               0
GRID*               1366               0-5.000000000E+005.8224742509E-01+
*       -1.284963920E+00               0
GRID*               1367               0-5.000000000E+001.9563016994E+00+
*       1.3213513290E+00               0
GRID*               1368               0-5.000000000E+00-9.382897697E-01+
*       1.2627672327E+00               0
GRID*               1369               0-5.000000000E+005.1725518205E-01+
*       1.4221775940E+00               0
GRID*               1370               0-5.000000000E+005.1482378783E+00+
*       1.3276260974E+00               0
GRID*               1371               0-5.000000000E+005.7461006981E+00+
*       -2.379429029E-01               0
GRID*               1372               0-5.000000000E+006.7882479641E+00+
*       -1.379413417E+00               0
GRID*               1373               0-5.000000000E+004.1681144944E+00+
*       1.6203716483E+00               0
GRID*               1374               0-5.000000000E+005.8588410638E+00+
*       -1.627812127E+00               0
GRID*               1375               0-5.000000000E+006.3389187386E+00+
*       1.2207569091E+00               0
GRID*               1376               0-5.000000000E+007.0801257271E+00+
*       -7.818391131E-02               0
GRID*               1377               0-5.000000000E+007.8823552031E+00+
*       -1.290834051E+00               0
GRID*               1378               0-5.000000000E+007.4772267662E+00+
*       1.2318105452E+00               0
GRID*               1379               0-5.000000000E+008.2142162350E+00+
*       -2.464291949E-02               0
GRID*               1380               0-5.000000000E+008.9720634938E+00+
*       -1.260991554E+00               0
GRID*               1381               0-5.000000000E+008.5647691117E+00+
*       1.2447767936E+00               0
GRID*               1382               0-5.000000000E+009.3016507943E+00+
*       -4.714775071E-03               0
GRID*               1383               0-5.000000000E+001.0050575286E+01+
*       -1.250513859E+00               0
GRID*               1384               0-5.000000000E+009.6325093385E+00+
*       1.2510391442E+00               0
GRID*               1385               0-5.000000000E+001.0373536615E+01+
*       2.7301673195E-03               0
GRID*               1386               0-5.000000000E+001.1123521270E+01+
*       -1.246722746E+00               0
GRID*               1387               0-5.000000000E+001.0693133601E+01+
*       1.2535846977E+00               0
GRID*               1388               0-5.000000000E+001.1439768908E+01+
*       5.4900997569E-03               0
GRID*               1389               0-5.000000000E+001.2194192114E+01+
*       -1.245328720E+00               0
GRID*               1390               0-5.000000000E+001.1751725565E+01+
*       1.2543535037E+00               0
GRID*               1391               0-5.000000000E+001.2506734589E+01+
*       4.8949325705E-03               0
GRID*               1392               0-5.000000000E+001.3270887147E+01+
*       -1.249828340E+00               0
GRID*               1393               0-5.000000000E+001.2815755463E+01+
*       1.2534260915E+00               0
GRID*               1394               0-5.000000000E+001.3591475929E+01+
*       -3.954120258E-04               0
GRID*               1395               0-5.000000000E+001.4365608938E+01+
*       -1.255557764E+00               0
GRID*               1396               0-5.000000000E+001.3903756344E+01+
*       1.2553157833E+00               0
GRID*               1397               0-5.000000000E+001.4720937633E+01+
*       -3.192565018E-03               0
GRID*               1398               0-5.000000000E+001.5497468349E+01+
*       -1.266999131E+00               0
GRID*               1399               0-5.000000000E+001.5056936016E+01+
*       1.2721217149E+00               0
GRID*               1400               0-5.000000000E+001.5945009512E+01+
*       -7.801122141E-03               0
GRID*               1401               0-5.000000000E+001.6679308994E+01+
*       -1.296684795E+00               0
GRID*               1402               0-5.000000000E+001.8118323698E+01+
*       1.1501902669E+00               0
GRID*               1403               0-5.000000000E+001.7281830442E+01+
*       -8.625676689E-02               0
GRID*               1404               0-5.000000000E+001.6453644350E+01+
*       1.3841505588E+00               0
GRID*               1405               0-5.000000000E+001.7912367956E+01+
*       -1.365965593E+00               0
GRID*               1406               0-5.000000000E+001.8571654630E+01+
*       -2.943710429E-01               0
GRID*               1407               0-5.000000000E+00-4.283247944E+01+
*       1.2870759731E+00               0
GRID*               1408               0-5.000000000E+00-4.198175667E+01+
*       1.6119767528E-02               0
GRID*               1409               0-5.000000000E+00-4.121979119E+01+
*       -1.288990347E+00               0
GRID*               1410               0-5.000000000E+00-5.267163462E+01+
*       1.2851970019E+00               0
GRID*               1411               0-5.000000000E+00-5.199191617E+01+
*       -2.269156824E-02               0
GRID*               1412               0-5.000000000E+00-5.115210572E+01+
*       -1.288407078E+00               0
GRID*               1413               0-5.000000000E+00-5.414855411E+01+
*       1.4261621145E+00               0
GRID*               1414               0-5.000000000E+00-5.339402650E+01+
*       -8.074105702E-03               0
GRID*               1415               0-5.000000000E+00-5.256390807E+01+
*       -1.430413021E+00               0
GRID*               1416               0-5.000000000E+00-5.145467682E+01+
*       1.2598456089E+00               0
GRID*               1417               0-5.000000000E+00-5.074627722E+01+
*       -8.011482742E-03               0
GRID*               1418               0-5.000000000E+00-4.998007518E+01+
*       -1.261047108E+00               0
GRID*               1419               0-5.000000000E+00-5.031543750E+01+
*       1.2571377752E+00               0
GRID*               1420               0-5.000000000E+00-4.958963717E+01+
*       2.5012591469E-03               0
GRID*               1421               0-5.000000000E+00-4.885722643E+01+
*       -1.251747952E+00               0
GRID*               1422               0-5.000000000E+00-4.250125670E+01+
*       -1.291613626E+00               0
GRID*               1423               0-5.000000000E+00-4.332473888E+01+
*       -2.157788205E-02               0
GRID*               1424               0-5.000000000E+00-4.406525349E+01+
*       1.2648016806E+00               0
GRID*               1425               0-5.000000000E+00-4.919993404E+01+
*       1.2650465449E+00               0
GRID*               1426               0-5.000000000E+00-4.844432738E+01+
*       1.5770138225E-02               0
GRID*               1427               0-5.000000000E+00-4.773015116E+01+
*       -1.247096964E+00               0
GRID*               1428               0-5.000000000E+00-4.528992569E+01+
*       1.2900821116E+00               0
GRID*               1429               0-5.000000000E+00-4.669440979E+01+
*       1.4300211294E+00               0
GRID*               1430               0-5.000000000E+00-4.805125499E+01+
*       1.2930301941E+00               0
GRID*               1431               0-5.000000000E+00-4.465716279E+01+
*       -1.821896679E-02               0
GRID*               1432               0-5.000000000E+00-4.596575583E+01+
*       2.7005581627E-02               0
GRID*               1433               0-5.000000000E+00-4.724412637E+01+
*       3.7788598925E-02               0
GRID*               1434               0-5.000000000E+00-4.535926191E+01+
*       -1.282918142E+00               0
GRID*               1435               0-5.000000000E+00-4.657193027E+01+
*       -1.251753115E+00               0
GRID*               1436               0-5.000000000E+00-4.393374722E+01+
*       -1.426145353E+00               0
GRID*               1437               0-5.000000000E+00-1.948182153E+01+
*       -1.280623269E+00               0
GRID*               1438               0-5.000000000E+00-1.864773279E+01+
*       -2.797903926E-02               0
GRID*               1439               0-5.000000000E+00-1.794985392E+01+
*       1.2520437644E+00               0
GRID*               1440               0-5.000000000E+00-1.434723588E+01+
*       -1.252024371E+00               0
GRID*               1441               0-5.000000000E+00-1.361095938E+01+
*       3.2130596615E-02               0
GRID*               1442               0-5.000000000E+00-1.280762939E+01+
*       1.2970329126E+00               0
GRID*               1443               0-5.000000000E+00-1.422492249E+01+
*       1.4332285167E+00               0
GRID*               1444               0-5.000000000E+00-1.561973222E+01+
*       1.2935544213E+00               0
GRID*               1445               0-5.000000000E+00-1.680154947E+01+
*       1.2610565352E+00               0
GRID*               1446               0-5.000000000E+00-1.492136323E+01+
*       3.5561805535E-02               0
GRID*               1447               0-5.000000000E+00-1.617046804E+01+
*       4.8573836458E-03               0
GRID*               1448               0-5.000000000E+00-1.740243664E+01+
*       -2.723499274E-02               0
GRID*               1449               0-5.000000000E+00-1.673346107E+01+
*       -1.286293895E+00               0
GRID*               1450               0-5.000000000E+00-1.553675229E+01+
*       -1.255947834E+00               0
GRID*               1451               0-5.000000000E+00-1.812487729E+01+
*       -1.425521186E+00               0
GRID*               1452               0-5.000000000E+00-3.998480562E+01+
*       1.2875679820E+00               0
GRID*               1453               0-5.000000000E+00-3.925418035E+01+
*       -1.768690036E-02               0
GRID*               1454               0-5.000000000E+00-3.838002250E+01+
*       -1.282858409E+00               0
GRID*               1455               0-5.000000000E+00-4.060384567E+01+
*       9.3910613069E-04               0
GRID*               1456               0-5.000000000E+00-3.976249920E+01+
*       -1.422708847E+00               0
GRID*               1457               0-5.000000000E+00-4.142388042E+01+
*       1.4240919548E+00               0
GRID*               1458               0-5.000000000E+00-3.878794815E+01+
*       1.2619746613E+00               0
GRID*               1459               0-5.000000000E+00-3.803667721E+01+
*       -2.468779802E-03               0
GRID*               1460               0-5.000000000E+00-3.722593370E+01+
*       -1.255883933E+00               0
GRID*               1461               0-5.000000000E+00-2.062185824E+01+
*       -1.251721817E+00               0
GRID*               1462               0-5.000000000E+00-1.982355754E+01+
*       -4.541750628E-03               0
GRID*               1463               0-5.000000000E+00-1.907661797E+01+
*       1.2511332203E+00               0
GRID*               1464               0-5.000000000E+00-3.766787569E+01+
*       1.2576520828E+00               0
GRID*               1465               0-5.000000000E+00-3.691132279E+01+
*       3.8654605974E-03               0
GRID*               1466               0-5.000000000E+00-3.612944157E+01+
*       -1.248593646E+00               0
GRID*               1467               0-5.000000000E+00-2.171848755E+01+
*       -1.249525124E+00               0
GRID*               1468               0-5.000000000E+00-2.093768667E+01+
*       1.8562104005E-03               0
GRID*               1469               0-5.000000000E+00-2.017640544E+01+
*       1.2531196000E+00               0
GRID*               1470               0-5.000000000E+00-3.658417711E+01+
*       1.2559945794E+00               0
GRID*               1471               0-5.000000000E+00-3.582215694E+01+
*       4.0282147983E-03               0
GRID*               1472               0-5.000000000E+00-3.504536520E+01+
*       -1.251560746E+00               0
GRID*               1473               0-5.000000000E+00-2.281137959E+01+
*       -1.248286910E+00               0
GRID*               1474               0-5.000000000E+00-2.203518527E+01+
*       6.2153332579E-03               0
GRID*               1475               0-5.000000000E+00-2.125977575E+01+
*       1.2558985528E+00               0
GRID*               1476               0-5.000000000E+00-3.551080789E+01+
*       1.2543002935E+00               0
GRID*               1477               0-5.000000000E+00-3.473156424E+01+
*       1.6355498036E-03               0
GRID*               1478               0-5.000000000E+00-3.395287842E+01+
*       -1.249591272E+00               0
GRID*               1479               0-5.000000000E+00-2.392663433E+01+
*       -1.245490076E+00               0
GRID*               1480               0-5.000000000E+00-2.315518651E+01+
*       1.6008317514E-02               0
GRID*               1481               0-5.000000000E+00-2.234996706E+01+
*       1.2635053593E+00               0
GRID*               1482               0-5.000000000E+00-3.442174443E+01+
*       1.2603551331E+00               0
GRID*               1483               0-5.000000000E+00-3.360579329E+01+
*       1.3198227002E-02               0
GRID*               1484               0-5.000000000E+00-3.282761717E+01+
*       -1.247963130E+00               0
GRID*               1485               0-5.000000000E+00-2.507552525E+01+
*       -1.243917108E+00               0
GRID*               1486               0-5.000000000E+00-2.434239867E+01+
*       4.1648208487E-02               0
GRID*               1487               0-5.000000000E+00-2.348652599E+01+
*       1.2931430909E+00               0
GRID*               1488               0-5.000000000E+00-3.327644269E+01+
*       1.2920211123E+00               0
GRID*               1489               0-5.000000000E+00-3.239643353E+01+
*       4.0026969467E-02               0
GRID*               1490               0-5.000000000E+00-3.165395512E+01+
*       -1.249452157E+00               0
GRID*               1491               0-5.000000000E+00-3.040893744E+01+
*       -1.274771253E+00               0
GRID*               1492               0-5.000000000E+00-2.893678173E+01+
*       -1.415253050E+00               0
GRID*               1493               0-5.000000000E+00-2.747936880E+01+
*       -1.278457144E+00               0
GRID*               1494               0-5.000000000E+00-2.625276433E+01+
*       -1.250538547E+00               0
GRID*               1495               0-5.000000000E+00-2.822620405E+01+
*       1.3667215988E-02               0
GRID*               1496               0-5.000000000E+00-2.748225744E+01+
*       1.3008531113E+00               0
GRID*               1497               0-5.000000000E+00-2.687637401E+01+
*       2.0967608113E-02               0
GRID*               1498               0-5.000000000E+00-2.560334906E+01+
*       4.2062538033E-02               0
GRID*               1499               0-5.000000000E+00-2.623135873E+01+
*       1.3043296949E+00               0
GRID*               1500               0-5.000000000E+00-2.482930283E+01+
*       1.4346006989E+00               0
GRID*               1501               0-5.000000000E+00-3.107871001E+01+
*       4.2077779019E-02               0
GRID*               1502               0-5.000000000E+00-2.967393975E+01+
*       2.1337487108E-02               0
GRID*               1503               0-5.000000000E+00-3.190956106E+01+
*       1.4381420294E+00               0
GRID*               1504               0-5.000000000E+00-3.043121940E+01+
*       1.3274924788E+00               0
GRID*               1505               0-5.000000000E+00-2.893656348E+01+
*       1.4358359030E+00               0
GRID*               1506               03.2894433546E+002.0120410184E+01+
*       -3.615558105E+00               0
GRID*               1507               0-3.312058442E+002.9861894539E+01+
*       -3.616930839E+00               0
GRID*               1508               0-3.279611874E+002.0119880753E+01+
*       -3.620593417E+00               0
GRID*               1509               0-6.392211217E-011.9108789846E+01+
*       -3.575068806E+00               0
GRID*               1510               09.1590891793E-011.9225639403E+01+
*       -3.654950820E+00               0
GRID*               1511               02.2353712100E+001.9331773375E+01+
*       -3.406286975E+00               0
GRID*               1512               0-2.233012849E+001.9324234349E+01+
*       -3.401194230E+00               0
GRID*               1513               0-5.698420314E+002.6296827042E+01+
*       -3.655637551E+00               0
GRID*               1514               0-5.223811985E+002.7800476999E+01+
*       -3.572526784E+00               0
GRID*               1515               0-4.461536293E+002.9151362278E+01+
*       -3.405425814E+00               0
GRID*               1516               0-5.715222270E+002.3433945372E+01+
*       -3.574084019E+00               0
GRID*               1517               0-6.081547502E+002.4959462649E+01+
*       -3.418293411E+00               0
GRID*               1518               0-5.025144753E+002.2008415559E+01+
*       -3.651701942E+00               0
GRID*               1519               0-4.426262064E+002.0820753266E+01+
*       -3.412194589E+00               0
GRID*               1520               03.3081630527E+002.9863254911E+01+
*       -3.617994572E+00               0
GRID*               1521               05.6959353186E+002.6296250622E+01+
*       -3.658189682E+00               0
GRID*               1522               05.7169411587E+002.3433764020E+01+
*       -3.572378536E+00               0
GRID*               1523               06.0815135932E+002.4959360454E+01+
*       -3.418326525E+00               0
GRID*               1524               05.0213366046E+002.2009811356E+01+
*       -3.655686867E+00               0
GRID*               1525               04.4268692340E+002.0820507311E+01+
*       -3.411583717E+00               0
GRID*               1526               05.2232732589E+002.7802292163E+01+
*       -3.572506114E+00               0
GRID*               1527               04.4608148268E+002.9151373095E+01+
*       -3.405947697E+00               0
GRID*               1528               06.3978393184E-013.0890655158E+01+
*       -3.575565786E+00               0
GRID*               1529               0-9.159228641E-013.0774180789E+01+
*       -3.655126494E+00               0
GRID*               1530               0-2.235832536E+003.0666863974E+01+
*       -3.407384929E+00               0
GRID*               1531               02.1982344863E+003.0690132243E+01+
*       -3.399276788E+00               0
GRID*               1532               01.9499716733E+00-1.279182490E+02+
*       -4.500000000E+00               0
GRID*               1533               0-1.950148640E+00-1.220821624E+02+
*       -4.500000000E+00               0
GRID*               1534               0-1.949533200E+00-1.279176129E+02+
*       -4.500000000E+00               0
GRID*               1535               06.8458035600E-01-1.284413420E+02+
*       -4.500000000E+00               0
GRID*               1536               0-6.846244911E-01-1.284412704E+02+
*       -4.500000000E+00               0
GRID*               1537               0-3.441118978E+00-1.256850522E+02+
*       -4.500000000E+00               0
GRID*               1538               0-2.917531255E+00-1.230500767E+02+
*       -4.500000000E+00               0
GRID*               1539               0-3.441182040E+00-1.243152243E+02+
*       -4.500000000E+00               0
GRID*               1540               0-2.917359370E+00-1.269496410E+02+
*       -4.500000000E+00               0
GRID*               1541               01.9493674180E+00-1.220823185E+02+
*       -4.500000000E+00               0
GRID*               1542               03.4414849838E+00-1.256844553E+02+
*       -4.500000000E+00               0
GRID*               1543               02.9173819927E+00-1.269499840E+02+
*       -4.500000000E+00               0
GRID*               1544               03.4410520381E+00-1.243148925E+02+
*       -4.500000000E+00               0
GRID*               1545               02.9172472349E+00-1.230502148E+02+
*       -4.500000000E+00               0
GRID*               1546               0-6.846234117E-01-1.215585945E+02+
*       -4.500000000E+00               0
GRID*               1547               06.8470341746E-01-1.215587486E+02+
*       -4.500000000E+00               0
GRID*               1548               01.9500046162E+00-1.279183480E+02+
*       4.5000000000E+00               0
GRID*               1549               0-1.949475533E+00-1.220824025E+02+
*       4.5000000000E+00               0
GRID*               1550               0-1.949485516E+00-1.279175470E+02+
*       4.5000000000E+00               0
GRID*               1551               06.8459889887E-01-1.284413730E+02+
*       4.5000000000E+00               0
GRID*               1552               0-6.846156999E-01-1.284412566E+02+
*       4.5000000000E+00               0
GRID*               1553               0-3.441282044E+00-1.256849391E+02+
*       4.5000000000E+00               0
GRID*               1554               0-3.441019720E+00-1.243150227E+02+
*       4.5000000000E+00               0
GRID*               1555               0-2.917342287E+00-1.230503621E+02+
*       4.5000000000E+00               0
GRID*               1556               0-2.917405731E+00-1.269496257E+02+
*       4.5000000000E+00               0
GRID*               1557               01.9500642174E+00-1.220820646E+02+
*       4.5000000000E+00               0
GRID*               1558               03.4413226732E+00-1.256845629E+02+
*       4.5000000000E+00               0
GRID*               1559               02.9173360235E+00-1.269500087E+02+
*       4.5000000000E+00               0
GRID*               1560               02.9173523792E+00-1.230500157E+02+
*       4.5000000000E+00               0
GRID*               1561               03.4412105732E+00-1.243150900E+02+
*       4.5000000000E+00               0
GRID*               1562               06.8473853829E-01-1.215585899E+02+
*       4.5000000000E+00               0
GRID*               1563               0-6.845923278E-01-1.215587516E+02+
*       4.5000000000E+00               0
GRID*               1564               01.9498830165E+002.7918258074E+01+
*       -4.500000000E+00               0
GRID*               1565               0-1.949553188E+002.2082508315E+01+
*       -4.500000000E+00               0
GRID*               1566               0-1.949495381E+002.7917834218E+01+
*       -4.500000000E+00               0
GRID*               1567               06.8473293608E-012.8441373142E+01+
*       -4.500000000E+00               0
GRID*               1568               0-6.846221911E-012.8441329328E+01+
*       -4.500000000E+00               0
GRID*               1569               0-3.441056619E+002.4315079508E+01+
*       -4.500000000E+00               0
GRID*               1570               0-2.917341764E+002.3050357043E+01+
*       -4.500000000E+00               0
GRID*               1571               0-2.917447318E+002.6949746604E+01+
*       -4.500000000E+00               0
GRID*               1572               0-3.441167457E+002.5684697873E+01+
*       -4.500000000E+00               0
GRID*               1573               01.9501720927E+002.2081979107E+01+
*       -4.500000000E+00               0
GRID*               1574               03.4413199606E+002.5684566651E+01+
*       -4.500000000E+00               0
GRID*               1575               02.9173077075E+002.6949997332E+01+
*       -4.500000000E+00               0
GRID*               1576               02.9173712932E+002.3049997599E+01+
*       -4.500000000E+00               0
GRID*               1577               03.4412138396E+002.4315086451E+01+
*       -4.500000000E+00               0
GRID*               1578               06.8463023750E-012.1558662770E+01+
*       -4.500000000E+00               0
GRID*               1579               0-6.846097045E-012.1558762000E+01+
*       -4.500000000E+00               0
GRID*               1580               01.9498538022E+002.7918172824E+01+
*       4.5000000000E+00               0
GRID*               1581               0-1.949964093E+002.2081937814E+01+
*       4.5000000000E+00               0
GRID*               1582               0-1.949451614E+002.7917580897E+01+
*       4.5000000000E+00               0
GRID*               1583               06.8468524593E-012.8441452890E+01+
*       4.5000000000E+00               0
GRID*               1584               0-6.846027957E-012.8441252931E+01+
*       4.5000000000E+00               0
GRID*               1585               0-3.441508729E+002.4315598179E+01+
*       4.5000000000E+00               0
GRID*               1586               0-2.917475106E+002.3050175407E+01+
*       4.5000000000E+00               0
GRID*               1587               0-3.441072144E+002.5685083307E+01+
*       4.5000000000E+00               0
GRID*               1588               0-2.917351403E+002.6949659693E+01+
*       4.5000000000E+00               0
GRID*               1589               01.9493496988E+002.2082319417E+01+
*       4.5000000000E+00               0
GRID*               1590               03.4414822732E+002.5684459061E+01+
*       4.5000000000E+00               0
GRID*               1591               02.9173546547E+002.6949975297E+01+
*       4.5000000000E+00               0
GRID*               1592               03.4410510856E+002.4314892155E+01+
*       4.5000000000E+00               0
GRID*               1593               02.9172434517E+002.3050213714E+01+
*       4.5000000000E+00               0
GRID*               1594               0-6.845859809E-012.1558556818E+01+
*       4.5000000000E+00               0
GRID*               1595               06.8470478966E-012.1558740601E+01+
*       4.5000000000E+00               0
GRID*               1596               06.7522121045E+00-1.217355073E+02+
*       7.7431284988E-01               0
GRID*               1597               06.3668577331E+00-1.210360222E+02+
*       -9.705668977E-01               0
GRID*               1598               05.8870439296E+00-1.203163881E+02+
*       1.3246485475E+00               0
GRID*               1599               05.9595484543E+00-1.204156333E+02+
*       1.5692322019E-01               0
GRID*               1600               05.5733760694E+00-1.199435417E+02+
*       -7.802803389E-01               0
GRID*               1601               0-6.898332350E+00-1.220568154E+02+
*       -1.021105959E+00               0
GRID*               1602               0-6.445782076E+00-1.211657145E+02+
*       3.3352917651E-01               0
GRID*               1603               0-5.996998313E+00-1.204763874E+02+
*       1.2919615082E+00               0
GRID*               1604               0-6.106344162E+00-1.206383159E+02+
*       -1.195302401E+00               0
GRID*               1605               0-5.486407164E+00-1.198025525E+02+
*       1.1216210283E+00               0
GRID*               1606               0-5.622263009E+00-1.199693064E+02+
*       2.6494227882E-02               0
GRID*               1607               07.4689034382E+00-1.256821066E+02+
*       8.2543509844E-01               0
GRID*               1608               07.3730953813E+00-1.263738469E+02+
*       -8.380892318E-01               0
GRID*               1609               07.4782950556E+00-1.244298203E+02+
*       -8.475427037E-01               0
GRID*               1610               07.0939300830E+00-1.225656299E+02+
*       -8.775435347E-01               0
GRID*               1611               07.3894635714E+00-1.237172706E+02+
*       8.1060652482E-01               0
GRID*               1612               07.0381571726E+00-1.275911883E+02+
*       8.3068666695E-01               0
GRID*               1613               06.7683816552E+00-1.282309384E+02+
*       -8.351719403E-01               0
GRID*               1614               06.1281320089E+00-1.293238826E+02+
*       8.3216621064E-01               0
GRID*               1615               05.7036490560E+00-1.298701427E+02+
*       -8.340902094E-01               0
GRID*               1616               04.7998821742E+00-1.307629086E+02+
*       8.3274347387E-01               0
GRID*               1617               04.2511456738E+00-1.311787983E+02+
*       -8.339865527E-01               0
GRID*               1618               03.1440790756E+00-1.318091623E+02+
*       8.3277242668E-01               0
GRID*               1619               02.5084549038E+00-1.320680502E+02+
*       -8.337704380E-01               0
GRID*               1620               01.2723836539E+00-1.323912711E+02+
*       8.3292193291E-01               0
GRID*               1621               05.9404451069E-01-1.324763913E+02+
*       -8.339354182E-01               0
GRID*               1622               0-6.867643992E-01-1.324684608E+02+
*       8.3282712072E-01               0
GRID*               1623               0-1.361415600E+00-1.323753786E+02+
*       -8.337650620E-01               0
GRID*               1624               0-2.599196624E+00-1.320352010E+02+
*       8.3294830932E-01               0
GRID*               1625               0-3.223121572E+00-1.317721001E+02+
*       -8.338053534E-01               0
GRID*               1626               0-4.331371188E+00-1.311228378E+02+
*       8.3139043427E-01               0
GRID*               1627               0-4.861013653E+00-1.307114387E+02+
*       -8.377123886E-01               0
GRID*               1628               0-5.765114253E+00-1.297972317E+02+
*       8.2650822398E-01               0
GRID*               1629               0-6.170352642E+00-1.292634153E+02+
*       -8.398481622E-01               0
GRID*               1630               0-6.808485304E+00-1.281455544E+02+
*       8.2359163749E-01               0
GRID*               1631               0-7.388365187E+00-1.262892078E+02+
*       8.1631812496E-01               0
GRID*               1632               0-7.474380649E+00-1.243806200E+02+
*       7.8310791815E-01               0
GRID*               1633               0-7.107418226E+00-1.226052962E+02+
*       6.9524711032E-01               0
GRID*               1634               0-7.395915169E+00-1.237550115E+02+
*       -9.003868888E-01               0
GRID*               1635               0-7.472496651E+00-1.256415566E+02+
*       -8.576438250E-01               0
GRID*               1636               0-7.060721685E+00-1.275290577E+02+
*       -8.425987333E-01               0
GRID*               1637               06.9319473436E+002.2136866110E+01+
*       -1.013492134E+00               0
GRID*               1638               06.4956671172E+002.1250869214E+01+
*       3.3653758749E-01               0
GRID*               1639               06.0504746873E+002.0568171527E+01+
*       1.2870596210E+00               0
GRID*               1640               06.1583744567E+002.0719312449E+01+
*       -1.193312201E+00               0
GRID*               1641               05.5147995204E+001.9917113837E+01+
*       1.1160095186E+00               0
GRID*               1642               05.6557520809E+002.0074430965E+01+
*       1.7726018554E-02               0
GRID*               1643               0-6.931759347E+002.2136411121E+01+
*       1.0133674102E+00               0
GRID*               1644               0-6.495524039E+002.1250621258E+01+
*       -3.364537338E-01               0
GRID*               1645               0-6.050408250E+002.0568080841E+01+
*       -1.287050041E+00               0
GRID*               1646               0-6.158293996E+002.0719196725E+01+
*       1.1933145621E+00               0
GRID*               1647               0-5.514752981E+001.9917063338E+01+
*       -1.115992786E+00               0
GRID*               1648               0-5.655703646E+002.0074375352E+01+
*       -1.772016637E-02               0
GRID*               1649               07.4644609841E+002.5729106259E+01+
*       -8.571376256E-01               0
GRID*               1650               07.3703787749E+002.6388345412E+01+
*       8.1747135444E-01               0
GRID*               1651               07.4103161406E+002.3843810597E+01+
*       -8.981304643E-01               0
GRID*               1652               07.4823247008E+002.4485399016E+01+
*       7.8890728200E-01               0
GRID*               1653               07.1411578460E+002.2707870432E+01+
*       6.9721660847E-01               0
GRID*               1654               07.0331236584E+002.7604819180E+01+
*       -8.412631483E-01               0
GRID*               1655               06.7708288901E+002.8225808614E+01+
*       8.2826942866E-01               0
GRID*               1656               06.1298320157E+002.9321473243E+01+
*       -8.358759852E-01               0
GRID*               1657               05.7152011219E+002.9856581805E+01+
*       8.3179286770E-01               0
GRID*               1658               04.8123275206E+003.0752520194E+01+
*       -8.340657720E-01               0
GRID*               1659               04.2731804000E+003.1163581920E+01+
*       8.3296044233E-01               0
GRID*               1660               03.1689952693E+003.1797605426E+01+
*       -8.334585593E-01               0
GRID*               1661               02.5415624934E+003.2056211393E+01+
*       8.3335993030E-01               0
GRID*               1662               01.3105383624E+003.2384588755E+01+
*       -8.332709680E-01               0
GRID*               1663               06.3680888591E-013.2472881450E+01+
*       8.3350383683E-01               0
GRID*               1664               0-6.376303337E-013.2472811542E+01+
*       -8.332154518E-01               0
GRID*               1665               0-1.311381778E+003.2384438908E+01+
*       8.3353186253E-01               0
GRID*               1666               0-2.542142904E+003.2056002398E+01+
*       -8.328687478E-01               0
GRID*               1667               0-3.168836137E+003.1797679621E+01+
*       8.3464492635E-01               0
GRID*               1668               0-4.272353737E+003.1164154839E+01+
*       -8.309449022E-01               0
GRID*               1669               0-4.811573986E+003.0753150482E+01+
*       8.3594019842E-01               0
GRID*               1670               0-5.714630817E+002.9857252776E+01+
*       -8.299044768E-01               0
GRID*               1671               0-6.129577460E+002.9321834300E+01+
*       8.3716524965E-01               0
GRID*               1672               0-6.770883035E+002.8225694972E+01+
*       -8.276859831E-01               0
GRID*               1673               0-7.370469878E+002.6387861719E+01+
*       -8.170096916E-01               0
GRID*               1674               0-7.482336774E+002.4485574609E+01+
*       -7.880079386E-01               0
GRID*               1675               0-7.141232828E+002.2708104052E+01+
*       -6.965881739E-01               0
GRID*               1676               0-7.410096372E+002.3842403079E+01+
*       8.9715126575E-01               0
GRID*               1677               0-7.464684573E+002.5726813849E+01+
*       8.5565552604E-01               0
GRID*               1678               0-7.033382349E+002.7604120624E+01+
*       8.4124164620E-01               0
GRID*               1679               02.3094858582E+00-1.240428146E+02+
*       -3.500001918E+00               0
GRID*               1680               01.7672155849E+00-1.232316809E+02+
*       -3.500000000E+00               0
GRID*               1681               09.5634241847E-01-1.226901822E+02+
*       -3.500003060E+00               0
GRID*               1682               02.9870877129E-04-1.225000000E+02+
*       -3.500000000E+00               0
GRID*               1683               0-9.564403553E-01-1.226901928E+02+
*       -3.500000089E+00               0
GRID*               1684               0-1.767684998E+00-1.232321501E+02+
*       -3.500000000E+00               0
GRID*               1685               0-2.309549611E+00-1.240430122E+02+
*       -3.500003051E+00               0
GRID*               1686               0-2.500000000E+00-1.250000002E+02+
*       -3.500000000E+00               0
GRID*               1687               0-2.309517356E+00-1.259570664E+02+
*       -3.500003060E+00               0
GRID*               1688               0-1.767684903E+00-1.267678500E+02+
*       -3.500000000E+00               0
GRID*               1689               0-9.564287310E-01-1.273098118E+02+
*       -3.500000469E+00               0
GRID*               1690               02.9888729011E-04-1.275000000E+02+
*       -3.500000000E+00               0
GRID*               1691               09.5642074550E-01-1.273097855E+02+
*       -3.500003051E+00               0
GRID*               1692               01.7672156266E+00-1.267683191E+02+
*       -3.500000000E+00               0
GRID*               1693               02.3095046921E+00-1.259571386E+02+
*       -3.500001165E+00               0
GRID*               1694               02.3094674033E+00-1.240427674E+02+
*       -2.500005013E+00               0
GRID*               1695               01.7672155843E+00-1.232316809E+02+
*       -2.500000000E+00               0
GRID*               1696               09.5626399771E-01-1.226901495E+02+
*       -2.500009172E+00               0
GRID*               1697               02.9870862684E-04-1.225000000E+02+
*       -2.500000000E+00               0
GRID*               1698               0-9.564447310E-01-1.226901949E+02+
*       -2.500000306E+00               0
GRID*               1699               0-1.767684998E+00-1.232321501E+02+
*       -2.500000000E+00               0
GRID*               1700               0-2.309582088E+00-1.240430906E+02+
*       -2.500009156E+00               0
GRID*               1701               0-2.500000000E+00-1.250000002E+02+
*       -2.500000000E+00               0
GRID*               1702               0-2.309484795E+00-1.259571449E+02+
*       -2.500009172E+00               0
GRID*               1703               0-1.767684903E+00-1.267678500E+02+
*       -2.500000000E+00               0
GRID*               1704               0-9.564483693E-01-1.273098025E+02+
*       -2.499999499E+00               0
GRID*               1705               02.9888735964E-04-1.275000000E+02+
*       -2.500000000E+00               0
GRID*               1706               09.5649906602E-01-1.273097529E+02+
*       -2.500009157E+00               0
GRID*               1707               01.7672156277E+00-1.267683191E+02+
*       -2.500000000E+00               0
GRID*               1708               02.3095203071E+00-1.259570988E+02+
*       -2.500003778E+00               0
GRID*               1709               02.3094686659E+00-1.240427706E+02+
*       -1.500004799E+00               0
GRID*               1710               01.7672155835E+00-1.232316809E+02+
*       -1.500000000E+00               0
GRID*               1711               09.5621270862E-01-1.226901281E+02+
*       -1.500013166E+00               0
GRID*               1712               02.9870847025E-04-1.225000000E+02+
*       -1.500000000E+00               0
GRID*               1713               0-9.564506865E-01-1.226901977E+02+
*       -1.500000599E+00               0
GRID*               1714               0-1.767684998E+00-1.232321501E+02+
*       -1.500000000E+00               0
GRID*               1715               0-2.309603500E+00-1.240431423E+02+
*       -1.500013178E+00               0
GRID*               1716               0-2.500000000E+00-1.250000002E+02+
*       -1.500000000E+00               0
GRID*               1717               0-2.309463502E+00-1.259571962E+02+
*       -1.500013166E+00               0
GRID*               1718               0-1.767684903E+00-1.267678500E+02+
*       -1.500000000E+00               0
GRID*               1719               0-9.564609874E-01-1.273097965E+02+
*       -1.499998877E+00               0
GRID*               1720               02.9888746464E-04-1.275000000E+02+
*       -1.500000000E+00               0
GRID*               1721               09.5655069580E-01-1.273097313E+02+
*       -1.500013178E+00               0
GRID*               1722               01.7672156289E+00-1.267683191E+02+
*       -1.500000000E+00               0
GRID*               1723               02.3095357968E+00-1.259570592E+02+
*       -1.500006369E+00               0
GRID*               1724               02.3095155300E+00-1.240428905E+02+
*       -4.999969376E-01               0
GRID*               1725               01.7672155825E+00-1.232316809E+02+
*       -5.000000002E-01               0
GRID*               1726               09.5627361706E-01-1.226901535E+02+
*       -5.000084159E-01               0
GRID*               1727               02.9870831281E-04-1.225000000E+02+
*       -5.000000000E-01               0
GRID*               1728               0-9.564568908E-01-1.226902007E+02+
*       -5.000009031E-01               0
GRID*               1729               0-1.767684998E+00-1.232321501E+02+
*       -5.000000000E-01               0
GRID*               1730               0-2.309578805E+00-1.240430827E+02+
*       -5.000085326E-01               0
GRID*               1731               0-2.500000000E+00-1.250000002E+02+
*       -5.000000000E-01               0
GRID*               1732               0-2.309488802E+00-1.259571352E+02+
*       -5.000084134E-01               0
GRID*               1733               0-1.767684903E+00-1.267678500E+02+
*       -5.000000000E-01               0
GRID*               1734               0-9.564610886E-01-1.273097965E+02+
*       -4.999988702E-01               0
GRID*               1735               02.9888759617E-04-1.275000000E+02+
*       -5.000000000E-01               0
GRID*               1736               09.5649111280E-01-1.273097562E+02+
*       -5.000085302E-01               0
GRID*               1737               01.7672156301E+00-1.267683191E+02+
*       -4.999999998E-01               0
GRID*               1738               02.3095399359E+00-1.259570487E+02+
*       -5.000070595E-01               0
GRID*               1739               02.3095393522E+00-1.240429514E+02+
*       5.0000705956E-01               0
GRID*               1740               01.7672155813E+00-1.232316809E+02+
*       4.9999999975E-01               0
GRID*               1741               09.5649101257E-01-1.226902441E+02+
*       5.0000853007E-01               0
GRID*               1742               02.9870816387E-04-1.225000000E+02+
*       5.0000000001E-01               0
GRID*               1743               0-9.564615169E-01-1.226902029E+02+
*       4.9999887029E-01               0
GRID*               1744               0-1.767684998E+00-1.232321501E+02+
*       5.0000000001E-01               0
GRID*               1745               0-2.309488672E+00-1.240428651E+02+
*       5.0000841303E-01               0
GRID*               1746               0-2.500000000E+00-1.250000002E+02+
*       5.0000000000E-01               0
GRID*               1747               0-2.309579064E+00-1.259569177E+02+
*       5.0000853183E-01               0
GRID*               1748               0-1.767684903E+00-1.267678500E+02+
*       4.9999999999E-01               0
GRID*               1749               0-9.564564571E-01-1.273097986E+02+
*       5.0000090313E-01               0
GRID*               1750               02.9888774529E-04-1.275000000E+02+
*       4.9999999998E-01               0
GRID*               1751               09.5627375210E-01-1.273098468E+02+
*       5.0000841568E-01               0
GRID*               1752               01.7672156313E+00-1.267683191E+02+
*       5.0000000017E-01               0
GRID*               1753               02.3095160499E+00-1.259571096E+02+
*       4.9999693861E-01               0
GRID*               1754               02.3095352216E+00-1.240429409E+02+
*       1.5000063685E+00               0
GRID*               1755               01.7672155801E+00-1.232316809E+02+
*       1.4999999997E+00               0
GRID*               1756               09.5655060667E-01-1.226902689E+02+
*       1.5000131782E+00               0
GRID*               1757               02.9870803249E-04-1.225000000E+02+
*       1.5000000000E+00               0
GRID*               1758               0-9.564614162E-01-1.226902028E+02+
*       1.4999988766E+00               0
GRID*               1759               0-1.767684998E+00-1.232321501E+02+
*       1.5000000000E+00               0
GRID*               1760               0-2.309463406E+00-1.240428042E+02+
*       1.5000131660E+00               0
GRID*               1761               0-2.500000000E+00-1.250000002E+02+
*       1.5000000000E+00               0
GRID*               1762               0-2.309603798E+00-1.259568581E+02+
*       1.5000131779E+00               0
GRID*               1763               0-1.767684903E+00-1.267678500E+02+
*       1.5000000000E+00               0
GRID*               1764               0-9.564502454E-01-1.273098016E+02+
*       1.5000005986E+00               0
GRID*               1765               02.9888790292E-04-1.275000000E+02+
*       1.5000000000E+00               0
GRID*               1766               09.5621285182E-01-1.273098722E+02+
*       1.5000131664E+00               0
GRID*               1767               01.7672156323E+00-1.267683191E+02+
*       1.5000000001E+00               0
GRID*               1768               02.3094690729E+00-1.259572295E+02+
*       1.5000047999E+00               0
GRID*               1769               02.3095197699E+00-1.240429013E+02+
*       2.5000037779E+00               0
GRID*               1770               01.7672155789E+00-1.232316809E+02+
*       2.4999999996E+00               0
GRID*               1771               09.5649896904E-01-1.226902474E+02+
*       2.5000091568E+00               0
GRID*               1772               02.9870792762E-04-1.225000000E+02+
*       2.5000000000E+00               0
GRID*               1773               0-9.564488138E-01-1.226901968E+02+
*       2.4999994993E+00               0
GRID*               1774               0-1.767684998E+00-1.232321501E+02+
*       2.5000000000E+00               0
GRID*               1775               0-2.309484667E+00-1.240428555E+02+
*       2.5000091724E+00               0
GRID*               1776               0-2.500000000E+00-1.250000002E+02+
*       2.5000000000E+00               0
GRID*               1777               0-2.309582355E+00-1.259569098E+02+
*       2.5000091561E+00               0
GRID*               1778               0-1.767684903E+00-1.267678500E+02+
*       2.5000000000E+00               0
GRID*               1779               0-9.564442827E-01-1.273098044E+02+
*       2.5000003057E+00               0
GRID*               1780               02.9888805970E-04-1.275000000E+02+
*       2.5000000000E+00               0
GRID*               1781               09.5626413228E-01-1.273098508E+02+
*       2.5000091721E+00               0
GRID*               1782               01.7672156332E+00-1.267683191E+02+
*       2.5000000000E+00               0
GRID*               1783               02.3094678106E+00-1.259572327E+02+
*       2.5000050129E+00               0
GRID*               1784               02.3095041938E+00-1.240428615E+02+
*       3.5000011647E+00               0
GRID*               1785               01.7672155778E+00-1.232316809E+02+
*       3.4999999995E+00               0
GRID*               1786               09.5642063588E-01-1.226902148E+02+
*       3.5000030515E+00               0
GRID*               1787               02.9870785817E-04-1.225000000E+02+
*       3.5000000000E+00               0
GRID*               1788               0-9.564291978E-01-1.226901875E+02+
*       3.5000004694E+00               0
GRID*               1789               0-1.767684998E+00-1.232321501E+02+
*       3.5000000000E+00               0
GRID*               1790               0-2.309517182E+00-1.240429340E+02+
*       3.5000030602E+00               0
GRID*               1791               0-2.500000000E+00-1.250000002E+02+
*       3.5000000000E+00               0
GRID*               1792               0-2.309549832E+00-1.259569881E+02+
*       3.5000030512E+00               0
GRID*               1793               0-1.767684903E+00-1.267678500E+02+
*       3.5000000000E+00               0
GRID*               1794               0-9.564399018E-01-1.273098065E+02+
*       3.5000000890E+00               0
GRID*               1795               02.9888820432E-04-1.275000000E+02+
*       3.5000000000E+00               0
GRID*               1796               09.5634254060E-01-1.273098181E+02+
*       3.5000030600E+00               0
GRID*               1797               01.7672156337E+00-1.267683191E+02+
*       3.5000000000E+00               0
GRID*               1798               02.3094863113E+00-1.259571855E+02+
*       3.5000019180E+00               0
GRID*               1799               02.3094859433E+002.5957185227E+01+
*       -3.500001918E+00               0
GRID*               1800               01.7672153784E+002.6768318354E+01+
*       -3.500000000E+00               0
GRID*               1801               09.5634289526E-012.7309816641E+01+
*       -3.500003060E+00               0
GRID*               1802               02.9844012449E-042.7499999982E+01+
*       -3.500000000E+00               0
GRID*               1803               0-9.564411133E-012.7309807065E+01+
*       -3.500000089E+00               0
GRID*               1804               0-1.767684674E+002.6767849227E+01+
*       -3.500000000E+00               0
GRID*               1805               0-2.309549526E+002.5956987733E+01+
*       -3.500003051E+00               0
GRID*               1806               0-2.500000000E+002.4999999977E+01+
*       -3.500000000E+00               0
GRID*               1807               0-2.309517091E+002.4042933940E+01+
*       -3.500003060E+00               0
GRID*               1808               0-1.767684642E+002.3232150741E+01+
*       -3.500000000E+00               0
GRID*               1809               0-9.564303525E-012.2690186317E+01+
*       -3.500000469E+00               0
GRID*               1810               02.9837350770E-042.2500000018E+01+
*       -3.500000000E+00               0
GRID*               1811               09.5642103442E-012.2690215881E+01+
*       -3.500003051E+00               0
GRID*               1812               01.7672153784E+002.3231681646E+01+
*       -3.500000000E+00               0
GRID*               1813               02.3095042757E+002.4042861684E+01+
*       -3.500001165E+00               0
GRID*               1814               02.3094674915E+002.5957232443E+01+
*       -2.500005013E+00               0
GRID*               1815               01.7672153779E+002.6768318355E+01+
*       -2.500000000E+00               0
GRID*               1816               09.5626439170E-012.7309849106E+01+
*       -2.500009172E+00               0
GRID*               1817               02.9843998037E-042.7499999982E+01+
*       -2.500000000E+00               0
GRID*               1818               0-9.564454972E-012.7309805001E+01+
*       -2.500000306E+00               0
GRID*               1819               0-1.767684674E+002.6767849227E+01+
*       -2.500000000E+00               0
GRID*               1820               0-2.309581991E+002.5956909334E+01+
*       -2.500009156E+00               0
GRID*               1821               0-2.500000000E+002.4999999977E+01+
*       -2.500000000E+00               0
GRID*               1822               0-2.309484588E+002.4042855450E+01+
*       -2.500009172E+00               0
GRID*               1823               0-1.767684642E+002.3232150741E+01+
*       -2.500000000E+00               0
GRID*               1824               0-9.564499658E-012.2690195650E+01+
*       -2.499999499E+00               0
GRID*               1825               02.9837357695E-042.2500000018E+01+
*       -2.500000000E+00               0
GRID*               1826               09.5649944483E-012.2690248322E+01+
*       -2.500009157E+00               0
GRID*               1827               01.7672153779E+002.3231681645E+01+
*       -2.500000000E+00               0
GRID*               1828               02.3095198492E+002.4042901535E+01+
*       -2.500003778E+00               0
GRID*               1829               02.3094687530E+002.5957229215E+01+
*       -1.500004800E+00               0
GRID*               1830               01.7672153770E+002.6768318355E+01+
*       -1.500000000E+00               0
GRID*               1831               09.5621304865E-012.7309870339E+01+
*       -1.500013166E+00               0
GRID*               1832               02.9843982416E-042.7499999982E+01+
*       -1.500000000E+00               0
GRID*               1833               0-9.564514639E-012.7309802192E+01+
*       -1.500000599E+00               0
GRID*               1834               0-1.767684674E+002.6767849227E+01+
*       -1.500000000E+00               0
GRID*               1835               0-2.309603396E+002.5956857643E+01+
*       -1.500013178E+00               0
GRID*               1836               0-2.500000000E+002.4999999977E+01+
*       -1.500000000E+00               0
GRID*               1837               0-2.309463335E+002.4042804125E+01+
*       -1.500013166E+00               0
GRID*               1838               0-1.767684642E+002.3232150741E+01+
*       -1.500000000E+00               0
GRID*               1839               0-9.564625681E-012.2690201647E+01+
*       -1.499998877E+00               0
GRID*               1840               02.9837368153E-042.2500000018E+01+
*       -1.500000000E+00               0
GRID*               1841               09.5655113340E-012.2690269708E+01+
*       -1.500013178E+00               0
GRID*               1842               01.7672153770E+002.3231681645E+01+
*       -1.500000000E+00               0
GRID*               1843               02.3095352981E+002.4042941068E+01+
*       -1.500006369E+00               0
GRID*               1844               02.3095156084E+002.5957109317E+01+
*       -4.999969378E-01               0
GRID*               1845               01.7672153760E+002.6768318356E+01+
*       -5.000000002E-01               0
GRID*               1846               09.5627402207E-012.7309845123E+01+
*       -5.000084157E-01               0
GRID*               1847               02.9843966710E-042.7499999982E+01+
*       -5.000000000E-01               0
GRID*               1848               0-9.564576797E-012.7309799266E+01+
*       -5.000009031E-01               0
GRID*               1849               0-1.767684674E+002.6767849227E+01+
*       -5.000000000E-01               0
GRID*               1850               0-2.309578710E+002.5956917256E+01+
*       -5.000085328E-01               0
GRID*               1851               0-2.500000000E+002.4999999977E+01+
*       -5.000000000E-01               0
GRID*               1852               0-2.309488592E+002.4042865119E+01+
*       -5.000084129E-01               0
GRID*               1853               0-1.767684642E+002.3232150741E+01+
*       -5.000000000E-01               0
GRID*               1854               0-9.564626691E-012.2690201695E+01+
*       -4.999988702E-01               0
GRID*               1855               02.9837381253E-042.2500000018E+01+
*       -5.000000000E-01               0
GRID*               1856               09.5649148060E-012.2690245027E+01+
*       -5.000085300E-01               0
GRID*               1857               01.7672153760E+002.3231681644E+01+
*       -5.000000002E-01               0
GRID*               1858               02.3095394277E+002.4042951635E+01+
*       -5.000070597E-01               0
GRID*               1859               02.3095394277E+002.5957048365E+01+
*       5.0000705969E-01               0
GRID*               1860               01.7672153748E+002.6768318357E+01+
*       4.9999999975E-01               0
GRID*               1861               09.5649164710E-012.7309755125E+01+
*       5.0000853004E-01               0
GRID*               1862               02.9843951852E-042.7499999982E+01+
*       5.0000000001E-01               0
GRID*               1863               0-9.564623144E-012.7309797084E+01+
*       4.9999887027E-01               0
GRID*               1864               0-1.767684674E+002.6767849227E+01+
*       5.0000000001E-01               0
GRID*               1865               0-2.309488610E+002.5957134838E+01+
*       5.0000841291E-01               0
GRID*               1866               0-2.500000000E+002.4999999977E+01+
*       5.0000000000E-01               0
GRID*               1867               0-2.309578693E+002.4043082702E+01+
*       5.0000853283E-01               0
GRID*               1868               0-1.767684642E+002.3232150741E+01+
*       4.9999999999E-01               0
GRID*               1869               0-9.564580435E-012.2690199494E+01+
*       5.0000090312E-01               0
GRID*               1870               02.9837396104E-042.2500000018E+01+
*       4.9999999998E-01               0
GRID*               1871               09.5627387078E-012.2690154993E+01+
*       5.0000841575E-01               0
GRID*               1872               01.7672153748E+002.3231681643E+01+
*       4.9999999975E-01               0
GRID*               1873               02.3095156084E+002.4042890683E+01+
*       4.9999693780E-01               0
GRID*               1874               02.3095352981E+002.5957058932E+01+
*       1.5000063687E+00               0
GRID*               1875               01.7672153736E+002.6768318358E+01+
*       1.4999999997E+00               0
GRID*               1876               09.5655130345E-012.7309730454E+01+
*       1.5000131781E+00               0
GRID*               1877               02.9843938746E-042.7499999982E+01+
*       1.5000000000E+00               0
GRID*               1878               0-9.564622134E-012.7309797132E+01+
*       1.4999988766E+00               0
GRID*               1879               0-1.767684674E+002.6767849227E+01+
*       1.5000000000E+00               0
GRID*               1880               0-2.309463352E+002.5957195832E+01+
*       1.5000131660E+00               0
GRID*               1881               0-2.500000000E+002.4999999977E+01+
*       1.5000000000E+00               0
GRID*               1882               0-2.309603378E+002.4043142314E+01+
*       1.5000131784E+00               0
GRID*               1883               0-1.767684642E+002.3232150741E+01+
*       1.5000000000E+00               0
GRID*               1884               0-9.564518397E-012.2690196542E+01+
*       1.5000005986E+00               0
GRID*               1885               02.9837411804E-042.2500000018E+01+
*       1.5000000000E+00               0
GRID*               1886               09.5621290224E-012.2690129768E+01+
*       1.5000131663E+00               0
GRID*               1887               01.7672153736E+002.3231681642E+01+
*       1.4999999997E+00               0
GRID*               1888               02.3094687530E+002.4042770785E+01+
*       1.5000047996E+00               0
GRID*               1889               02.3095198492E+002.5957098465E+01+
*       2.5000037780E+00               0
GRID*               1890               01.7672153724E+002.6768318359E+01+
*       2.4999999996E+00               0
GRID*               1891               09.5649961112E-012.7309751831E+01+
*       2.5000091567E+00               0
GRID*               1892               02.9843928284E-042.7499999982E+01+
*       2.5000000000E+00               0
GRID*               1893               0-9.564495871E-012.7309803076E+01+
*       2.4999994993E+00               0
GRID*               1894               0-1.767684674E+002.6767849227E+01+
*       2.5000000000E+00               0
GRID*               1895               0-2.309484606E+002.5957144508E+01+
*       2.5000091725E+00               0
GRID*               1896               0-2.500000000E+002.4999999977E+01+
*       2.5000000000E+00               0
GRID*               1897               0-2.309581973E+002.4043090624E+01+
*       2.5000091563E+00               0
GRID*               1898               0-1.767684642E+002.3232150741E+01+
*       2.5000000000E+00               0
GRID*               1899               0-9.564458845E-012.2690193708E+01+
*       2.5000003056E+00               0
GRID*               1900               02.9837427419E-042.2500000018E+01+
*       2.5000000000E+00               0
GRID*               1901               09.5626424187E-012.2690151009E+01+
*       2.5000091721E+00               0
GRID*               1902               01.7672153724E+002.3231681641E+01+
*       2.4999999996E+00               0
GRID*               1903               02.3094674915E+002.4042767557E+01+
*       2.5000050130E+00               0
GRID*               1904               02.3095042757E+002.5957138316E+01+
*       3.5000011647E+00               0
GRID*               1905               01.7672153713E+002.6768318360E+01+
*       3.4999999995E+00               0
GRID*               1906               09.5642119526E-012.7309784260E+01+
*       3.5000030514E+00               0
GRID*               1907               02.9843921356E-042.7499999982E+01+
*       3.5000000000E+00               0
GRID*               1908               0-9.564299350E-012.7309812327E+01+
*       3.5000004694E+00               0
GRID*               1909               0-1.767684674E+002.6767849227E+01+
*       3.5000000000E+00               0
GRID*               1910               0-2.309517109E+002.5957066017E+01+
*       3.5000030602E+00               0
GRID*               1911               0-2.500000000E+002.4999999977E+01+
*       3.5000000000E+00               0
GRID*               1912               0-2.309549509E+002.4043012225E+01+
*       3.5000030512E+00               0
GRID*               1913               0-1.767684642E+002.3232150741E+01+
*       3.5000000000E+00               0
GRID*               1914               0-9.564415092E-012.2690191626E+01+
*       3.5000000890E+00               0
GRID*               1915               02.9837441823E-042.2500000018E+01+
*       3.5000000000E+00               0
GRID*               1916               09.5634273990E-012.2690183487E+01+
*       3.5000030600E+00               0
GRID*               1917               01.7672153713E+002.3231681640E+01+
*       3.4999999995E+00               0
GRID*               1918               02.3094859433E+002.4042814773E+01+
*       3.5000019181E+00               0
GRID*               1919               05.0000000000E+00-5.589295024E+01+
*       -1.319832694E+00               0
GRID*               1920               05.0000000000E+00-5.507390589E+01+
*       -1.599120546E-02               0
GRID*               1921               05.0000000000E+00-5.424597289E+01+
*       1.2771842055E+00               0
GRID*               1922               05.0000000000E+00-8.194543736E+01+
*       1.2858808615E+00               0
GRID*               1923               05.0000000000E+00-8.277389107E+01+
*       2.6183939138E-02               0
GRID*               1924               05.0000000000E+00-8.351623794E+01+
*       -1.254419555E+00               0
GRID*               1925               05.0000000000E+00-6.711977395E+01+
*       1.2915820036E+00               0
GRID*               1926               05.0000000000E+00-6.796478240E+01+
*       4.1251768363E-02               0
GRID*               1927               05.0000000000E+00-6.868141394E+01+
*       -1.245393753E+00               0
GRID*               1928               05.0000000000E+00-5.718205996E+01+
*       1.2812944236E+00               0
GRID*               1929               05.0000000000E+00-5.792632267E+01+
*       -2.750354145E-02               0
GRID*               1930               05.0000000000E+00-5.881135782E+01+
*       -1.290087065E+00               0
GRID*               1931               05.0000000000E+00-5.653163445E+01+
*       -1.521067192E-02               0
GRID*               1932               05.0000000000E+00-5.740514165E+01+
*       -1.432688762E+00               0
GRID*               1933               05.0000000000E+00-5.570508002E+01+
*       1.4154426947E+00               0
GRID*               1934               05.0000000000E+00-5.841999196E+01+
*       1.2629530359E+00               0
GRID*               1935               05.0000000000E+00-5.920489912E+01+
*       -1.201727183E-03               0
GRID*               1936               05.0000000000E+00-6.001113759E+01+
*       -1.259346635E+00               0
GRID*               1937               05.0000000000E+00-6.749743180E+01+
*       -1.254097417E+00               0
GRID*               1938               05.0000000000E+00-6.671735204E+01+
*       2.9450252918E-03               0
GRID*               1939               05.0000000000E+00-6.593001194E+01+
*       1.2579019497E+00               0
GRID*               1940               05.0000000000E+00-5.962963421E+01+
*       1.2882436531E+00               0
GRID*               1941               05.0000000000E+00-6.045761314E+01+
*       3.1769439785E-02               0
GRID*               1942               05.0000000000E+00-6.118254022E+01+
*       -1.250161291E+00               0
GRID*               1943               05.0000000000E+00-6.630546384E+01+
*       -1.287634858E+00               0
GRID*               1944               05.0000000000E+00-6.547750500E+01+
*       -3.317043466E-02               0
GRID*               1945               05.0000000000E+00-6.476339868E+01+
*       1.2493564776E+00               0
GRID*               1946               05.0000000000E+00-6.359749116E+01+
*       1.2567322376E+00               0
GRID*               1947               05.0000000000E+00-6.240807420E+01+
*       1.2885276184E+00               0
GRID*               1948               05.0000000000E+00-6.101542806E+01+
*       1.4286912557E+00               0
GRID*               1949               05.0000000000E+00-6.173257282E+01+
*       3.1278661315E-02               0
GRID*               1950               05.0000000000E+00-6.235040281E+01+
*       -1.258109861E+00               0
GRID*               1951               05.0000000000E+00-6.421012595E+01+
*       -3.274590882E-02               0
GRID*               1952               05.0000000000E+00-6.297292219E+01+
*       -5.175427962E-04               0
GRID*               1953               05.0000000000E+00-6.353952793E+01+
*       -1.289715362E+00               0
GRID*               1954               05.0000000000E+00-6.493078517E+01+
*       -1.429124105E+00               0
GRID*               1955               05.0000000000E+00-7.115807557E+01+
*       1.3847584438E+00               0
GRID*               1956               05.0000000000E+00-7.216283591E+01+
*       2.0242105847E-01               0
GRID*               1957               05.0000000000E+00-7.287512521E+01+
*       -1.363468230E+00               0
GRID*               1958               05.0000000000E+00-6.993442427E+01+
*       1.3288580496E+00               0
GRID*               1959               05.0000000000E+00-6.850403245E+01+
*       1.4401352015E+00               0
GRID*               1960               05.0000000000E+00-7.063208926E+01+
*       5.8618114655E-02               0
GRID*               1961               05.0000000000E+00-6.927415379E+01+
*       5.4047859969E-02               0
GRID*               1962               05.0000000000E+00-6.991586217E+01+
*       -1.260669336E+00               0
GRID*               1963               05.0000000000E+00-7.138684461E+01+
*       -1.395990720E+00               0
GRID*               1964               05.0000000000E+00-7.314031077E+01+
*       1.3256795383E+00               0
GRID*               1965               05.0000000000E+00-7.378495307E+01+
*       -2.414647229E-01               0
GRID*               1966               05.0000000000E+00-7.485439346E+01+
*       -1.383637405E+00               0
GRID*               1967               05.0000000000E+00-7.214409362E+01+
*       1.6184196945E+00               0
GRID*               1968               05.0000000000E+00-7.392007238E+01+
*       -1.630068695E+00               0
GRID*               1969               05.0000000000E+00-7.436481271E+01+
*       1.2240072886E+00               0
GRID*               1970               05.0000000000E+00-7.516798894E+01+
*       -7.340449191E-02               0
GRID*               1971               05.0000000000E+00-7.598622329E+01+
*       -1.292346519E+00               0
GRID*               1972               05.0000000000E+00-8.230365711E+01+
*       -1.283626259E+00               0
GRID*               1973               05.0000000000E+00-8.147537013E+01+
*       -2.317537666E-02               0
GRID*               1974               05.0000000000E+00-8.073366142E+01+
*       1.2563881785E+00               0
GRID*               1975               05.0000000000E+00-7.558755634E+01+
*       1.2648460973E+00               0
GRID*               1976               05.0000000000E+00-7.642242721E+01+
*       5.2251256326E-03               0
GRID*               1977               05.0000000000E+00-7.714570783E+01+
*       -1.262112712E+00               0
GRID*               1978               05.0000000000E+00-7.955478583E+01+
*       1.2582949379E+00               0
GRID*               1979               05.0000000000E+00-7.836302095E+01+
*       1.2857144293E+00               0
GRID*               1980               05.0000000000E+00-7.697128426E+01+
*       1.4193581461E+00               0
GRID*               1981               05.0000000000E+00-8.018121404E+01+
*       -3.023394168E-02               0
GRID*               1982               05.0000000000E+00-7.893356318E+01+
*       -2.753091173E-03               0
GRID*               1983               05.0000000000E+00-7.769392878E+01+
*       2.2186462911E-02               0
GRID*               1984               05.0000000000E+00-7.950414845E+01+
*       -1.290036856E+00               0
GRID*               1985               05.0000000000E+00-7.831232835E+01+
*       -1.261657849E+00               0
GRID*               1986               05.0000000000E+00-8.090661511E+01+
*       -1.427298534E+00               0
GRID*               1987               05.0000000000E+00-8.707445586E+01+
*       1.2504829908E+00               0
GRID*               1988               05.0000000000E+00-8.778306957E+01+
*       -3.150410678E-02               0
GRID*               1989               05.0000000000E+00-8.862058393E+01+
*       -1.286367749E+00               0
GRID*               1990               05.0000000000E+00-8.406473491E+01+
*       3.2001311470E-02               0
GRID*               1991               05.0000000000E+00-8.530837355E+01+
*       2.7024245617E-03               0
GRID*               1992               05.0000000000E+00-8.653844495E+01+
*       -2.949040770E-02               0
GRID*               1993               05.0000000000E+00-8.588427890E+01+
*       -1.287967646E+00               0
GRID*               1994               05.0000000000E+00-8.469348450E+01+
*       -1.257841942E+00               0
GRID*               1995               05.0000000000E+00-8.727082424E+01+
*       -1.427402769E+00               0
GRID*               1996               05.0000000000E+00-8.473368694E+01+
*       1.2903087455E+00               0
GRID*               1997               05.0000000000E+00-8.591861666E+01+
*       1.2583858433E+00               0
GRID*               1998               05.0000000000E+00-8.333613812E+01+
*       1.4282123073E+00               0
GRID*               1999               05.0000000000E+00-8.820522504E+01+
*       1.2495771373E+00               0
GRID*               2000               05.0000000000E+00-8.895822637E+01+
*       -9.532880861E-03               0
GRID*               2001               05.0000000000E+00-8.975827659E+01+
*       -1.258231634E+00               0
GRID*               2002               05.0000000000E+00-8.930726955E+01+
*       1.2519174920E+00               0
GRID*               2003               05.0000000000E+00-9.006852395E+01+
*       -4.222990887E-04               0
GRID*               2004               05.0000000000E+00-9.084764978E+01+
*       -1.250520028E+00               0
GRID*               2005               05.0000000000E+00-9.038762205E+01+
*       1.2528410833E+00               0
GRID*               2006               05.0000000000E+00-9.115058759E+01+
*       2.5891838060E-03               0
GRID*               2007               05.0000000000E+00-9.192176459E+01+
*       -1.248106698E+00               0
GRID*               2008               05.0000000000E+00-9.145713393E+01+
*       1.2529518665E+00               0
GRID*               2009               05.0000000000E+00-9.222136041E+01+
*       3.4939726973E-03               0
GRID*               2010               05.0000000000E+00-9.299052020E+01+
*       -1.247312776E+00               0
GRID*               2011               05.0000000000E+00-9.252193050E+01+
*       1.2528679258E+00               0
GRID*               2012               05.0000000000E+00-9.328772974E+01+
*       3.7478126997E-03               0
GRID*               2013               05.0000000000E+00-9.405734140E+01+
*       -1.247040061E+00               0
GRID*               2014               05.0000000000E+00-9.358478173E+01+
*       1.2527935995E+00               0
GRID*               2015               05.0000000000E+00-9.435240762E+01+
*       3.8239204026E-03               0
GRID*               2016               05.0000000000E+00-9.512347989E+01+
*       -1.246933567E+00               0
GRID*               2017               05.0000000000E+00-9.464683642E+01+
*       1.2527613247E+00               0
GRID*               2018               05.0000000000E+00-9.541644377E+01+
*       3.8620361120E-03               0
GRID*               2019               05.0000000000E+00-9.618940048E+01+
*       -1.246877938E+00               0
GRID*               2020               05.0000000000E+00-9.570855161E+01+
*       1.2527604568E+00               0
GRID*               2021               05.0000000000E+00-9.648023924E+01+
*       3.8973510288E-03               0
GRID*               2022               05.0000000000E+00-9.725527524E+01+
*       -1.246837031E+00               0
GRID*               2023               05.0000000000E+00-1.160463930E+02+
*       -1.299750736E+00               0
GRID*               2024               05.0000000000E+00-1.171065448E+02+
*       3.4344562084E-02               0
GRID*               2025               05.0000000000E+00-1.174671495E+02+
*       1.4811525231E+00               0
GRID*               2026               05.0000000000E+00-1.172263930E+02+
*       -1.551022832E+00               0
GRID*               2027               05.0000000000E+00-1.183234201E+02+
*       8.8931221520E-01               0
GRID*               2028               05.0000000000E+00-1.184225133E+02+
*       -6.448993464E-01               0
GRID*               2029               05.0000000000E+00-9.677010554E+01+
*       1.2527771398E+00               0
GRID*               2030               05.0000000000E+00-9.754394567E+01+
*       3.9356101562E-03               0
GRID*               2031               05.0000000000E+00-9.832116671E+01+
*       -1.246800319E+00               0
GRID*               2032               05.0000000000E+00-1.149021737E+02+
*       -1.253650703E+00               0
GRID*               2033               05.0000000000E+00-1.157588156E+02+
*       1.5058547110E-02               0
GRID*               2034               05.0000000000E+00-1.164982744E+02+
*       1.3118166502E+00               0
GRID*               2035               05.0000000000E+00-9.783156752E+01+
*       1.2528021478E+00               0
GRID*               2036               05.0000000000E+00-9.860761989E+01+
*       3.9758505124E-03               0
GRID*               2037               05.0000000000E+00-9.938709653E+01+
*       -1.246765136E+00               0
GRID*               2038               05.0000000000E+00-1.137939137E+02+
*       -1.252151596E+00               0
GRID*               2039               05.0000000000E+00-1.146061409E+02+
*       6.3905110706E-03               0
GRID*               2040               05.0000000000E+00-1.153885178E+02+
*       1.2685759933E+00               0
GRID*               2041               05.0000000000E+00-9.889296508E+01+
*       1.2528304127E+00               0
GRID*               2042               05.0000000000E+00-9.967128298E+01+
*       4.0164354912E-03               0
GRID*               2043               05.0000000000E+00-1.004530711E+02+
*       -1.246731017E+00               0
GRID*               2044               05.0000000000E+00-1.126902031E+02+
*       -1.252313542E+00               0
GRID*               2045               05.0000000000E+00-1.134890841E+02+
*       5.5311678114E-03               0
GRID*               2046               05.0000000000E+00-1.142880659E+02+
*       1.2595922241E+00               0
GRID*               2047               05.0000000000E+00-9.995489570E+01+
*       1.2525992818E+00               0
GRID*               2048               05.0000000000E+00-1.007381921E+02+
*       2.1048305713E-03               0
GRID*               2049               05.0000000000E+00-1.015270988E+02+
*       -1.252614952E+00               0
GRID*               2050               05.0000000000E+00-1.010232431E+02+
*       1.2514847149E+00               0
GRID*               2051               05.0000000000E+00-1.018235442E+02+
*       -1.621897345E-03               0
GRID*               2052               05.0000000000E+00-1.026175882E+02+
*       -1.252115705E+00               0
GRID*               2053               05.0000000000E+00-1.115608735E+02+
*       -1.248854868E+00               0
GRID*               2054               05.0000000000E+00-1.123509551E+02+
*       1.4538478586E-02               0
GRID*               2055               05.0000000000E+00-1.131827456E+02+
*       1.2640872229E+00               0
GRID*               2056               05.0000000000E+00-1.021149081E+02+
*       1.2577292071E+00               0
GRID*               2057               05.0000000000E+00-1.029510047E+02+
*       1.0391655394E-02               0
GRID*               2058               05.0000000000E+00-1.037438547E+02+
*       -1.249324852E+00               0
GRID*               2059               05.0000000000E+00-1.103822927E+02+
*       -1.250553294E+00               0
GRID*               2060               05.0000000000E+00-1.111341728E+02+
*       4.0640671113E-02               0
GRID*               2061               05.0000000000E+00-1.120286878E+02+
*       1.2939504277E+00               0
GRID*               2062               05.0000000000E+00-1.032660342E+02+
*       1.2904358783E+00               0
GRID*               2063               05.0000000000E+00-1.041653850E+02+
*       3.8752992630E-02               0
GRID*               2064               05.0000000000E+00-1.049204294E+02+
*       -1.250244078E+00               0
GRID*               2065               05.0000000000E+00-1.061698137E+02+
*       -1.275470796E+00               0
GRID*               2066               05.0000000000E+00-1.076505740E+02+
*       -1.413953462E+00               0
GRID*               2067               05.0000000000E+00-1.091305444E+02+
*       -1.274594462E+00               0
GRID*               2068               05.0000000000E+00-1.083899286E+02+
*       2.2629651526E-02               0
GRID*               2069               05.0000000000E+00-1.091654156E+02+
*       1.3277504636E+00               0
GRID*               2070               05.0000000000E+00-1.098082836E+02+
*       4.2935332390E-02               0
GRID*               2071               05.0000000000E+00-1.106557642E+02+
*       1.4389363414E+00               0
GRID*               2072               05.0000000000E+00-1.069080244E+02+
*       2.2937831069E-02               0
GRID*               2073               05.0000000000E+00-1.061301716E+02+
*       1.3274887646E+00               0
GRID*               2074               05.0000000000E+00-1.076475757E+02+
*       1.4415124309E+00               0
GRID*               2075               05.0000000000E+00-1.054902360E+02+
*       4.2167563519E-02               0
GRID*               2076               05.0000000000E+00-1.046394719E+02+
*       1.4380334523E+00               0
GRID*               2077               05.0000000000E+00-1.307283229E+01+
*       1.2830395818E+00               0
GRID*               2078               05.0000000000E+00-1.221950062E+01+
*       1.8437419922E-02               0
GRID*               2079               05.0000000000E+00-1.150944991E+01+
*       -1.285798490E+00               0
GRID*               2080               05.0000000000E+00-2.222761990E+00+
*       -1.335793119E+00               0
GRID*               2081               05.0000000000E+00-1.636547531E+00+
*       2.2465663845E-01               0
GRID*               2082               05.0000000000E+00-6.170121622E-01+
*       1.3763835613E+00               0
GRID*               2083               05.0000000000E+00-2.665624729E+00+
*       1.3572635940E+00               0
GRID*               2084               05.0000000000E+00-3.317078609E+00+
*       -2.117997338E-01               0
GRID*               2085               05.0000000000E+00-4.292374382E+00+
*       -1.412398240E+00               0
GRID*               2086               05.0000000000E+00-3.236853219E+00+
*       -1.627440222E+00               0
GRID*               2087               05.0000000000E+00-1.605922280E+00+
*       1.6247364445E+00               0
GRID*               2088               05.0000000000E+00-1.081205020E+01+
*       7.3266803382E-03               0
GRID*               2089               05.0000000000E+00-1.011488718E+01+
*       1.3155468951E+00               0
GRID*               2090               05.0000000000E+00-1.164417311E+01+
*       1.4286116328E+00               0
GRID*               2091               05.0000000000E+00-8.556817262E+00+
*       -1.294717661E+00               0
GRID*               2092               05.0000000000E+00-9.329016342E+00+
*       5.4647606587E-03               0
GRID*               2093               05.0000000000E+00-1.003636326E+01+
*       -1.422154621E+00               0
GRID*               2094               05.0000000000E+00-5.768966155E+00+
*       -1.462907966E+00               0
GRID*               2095               05.0000000000E+00-7.244408180E+00+
*       -1.305645660E+00               0
GRID*               2096               05.0000000000E+00-4.968696844E+00+
*       -7.997934198E-02               0
GRID*               2097               05.0000000000E+00-6.449714153E+00+
*       -4.552570496E-02               0
GRID*               2098               05.0000000000E+00-7.870615993E+00+
*       6.3265461492E-03               0
GRID*               2099               05.0000000000E+00-5.745216441E+00+
*       1.2655727787E+00               0
GRID*               2100               05.0000000000E+00-4.207746660E+00+
*       1.3927490081E+00               0
GRID*               2101               05.0000000000E+00-7.078481538E+00+
*       1.2815094607E+00               0
GRID*               2102               05.0000000000E+00-8.575242384E+00+
*       1.4272388474E+00               0
GRID*               2103               05.0000000000E+003.1841056066E+00+
*       -1.385540767E+00               0
GRID*               2104               05.0000000000E+004.1485942844E+00+
*       -2.053770007E-01               0
GRID*               2105               05.0000000000E+004.8187328287E+00+
*       1.3604026436E+00               0
GRID*               2106               05.0000000000E+001.8404648523E+00+
*       1.2717646227E+00               0
GRID*               2107               05.0000000000E+002.6089291986E+00+
*       -5.188656059E-02               0
GRID*               2108               05.0000000000E+003.3188691547E+00+
*       1.3982248468E+00               0
GRID*               2109               05.0000000000E+00-1.395447392E-01+
*       3.4875905727E-02               0
GRID*               2110               05.0000000000E+001.2305683363E+00+
*       -2.849232306E-02               0
GRID*               2111               05.0000000000E+005.8163282446E-01+
*       1.2850244920E+00               0
GRID*               2112               05.0000000000E+001.9550971580E+00+
*       -1.321283780E+00               0
GRID*               2113               05.0000000000E+00-9.409585984E-01+
*       -1.262655303E+00               0
GRID*               2114               05.0000000000E+005.1532114573E-01+
*       -1.422112502E+00               0
GRID*               2115               05.0000000000E+005.1480491792E+00+
*       -1.327571449E+00               0
GRID*               2116               05.0000000000E+005.7460265797E+00+
*       2.3799411279E-01               0
GRID*               2117               05.0000000000E+006.7882538612E+00+
*       1.3794484105E+00               0
GRID*               2118               05.0000000000E+004.1676486726E+00+
*       -1.620304330E+00               0
GRID*               2119               05.0000000000E+005.8588006500E+00+
*       1.6278332847E+00               0
GRID*               2120               05.0000000000E+006.3389773591E+00+
*       -1.220718179E+00               0
GRID*               2121               05.0000000000E+007.0802100317E+00+
*       7.8227503195E-02               0
GRID*               2122               05.0000000000E+007.8824162338E+00+
*       1.2908624187E+00               0
GRID*               2123               05.0000000000E+007.4774674552E+00+
*       -1.231781880E+00               0
GRID*               2124               05.0000000000E+008.2144052223E+00+
*       2.4675720481E-02               0
GRID*               2125               05.0000000000E+008.9721691690E+00+
*       1.2610122111E+00               0
GRID*               2126               05.0000000000E+008.5651393718E+00+
*       -1.244757109E+00               0
GRID*               2127               05.0000000000E+009.3019140591E+00+
*       4.7368413267E-03               0
GRID*               2128               05.0000000000E+001.0050712386E+01+
*       1.2505269456E+00               0
GRID*               2129               05.0000000000E+009.6329672620E+00+
*       -1.251027347E+00               0
GRID*               2130               05.0000000000E+001.0373847882E+01+
*       -2.718099240E-03               0
GRID*               2131               05.0000000000E+001.1123677440E+01+
*       1.2467289394E+00               0
GRID*               2132               05.0000000000E+001.0693642316E+01+
*       -1.253579870E+00               0
GRID*               2133               05.0000000000E+001.1440104790E+01+
*       -5.486893978E-03               0
GRID*               2134               05.0000000000E+001.2194356270E+01+
*       1.2453288136E+00               0
GRID*               2135               05.0000000000E+001.1752251993E+01+
*       -1.254354940E+00               0
GRID*               2136               05.0000000000E+001.2507073156E+01+
*       -4.900472169E-03               0
GRID*               2137               05.0000000000E+001.3271046651E+01+
*       1.2498204828E+00               0
GRID*               2138               05.0000000000E+001.2816269189E+01+
*       -1.253434016E+00               0
GRID*               2139               05.0000000000E+001.3591795804E+01+
*       3.8056567685E-04               0
GRID*               2140               05.0000000000E+001.4365754921E+01+
*       1.2555456780E+00               0
GRID*               2141               05.0000000000E+001.3904229727E+01+
*       -1.255328663E+00               0
GRID*               2142               05.0000000000E+001.4721219938E+01+
*       3.1750058112E-03               0
GRID*               2143               05.0000000000E+001.5497589801E+01+
*       1.2669861988E+00               0
GRID*               2144               05.0000000000E+001.5057342403E+01+
*       -1.272134916E+00               0
GRID*               2145               05.0000000000E+001.5945232397E+01+
*       7.7861937681E-03               0
GRID*               2146               05.0000000000E+001.6679396558E+01+
*       1.2966743604E+00               0
GRID*               2147               05.0000000000E+001.8118451428E+01+
*       -1.150196446E+00               0
GRID*               2148               05.0000000000E+001.7281970125E+01+
*       8.6246154821E-02               0
GRID*               2149               05.0000000000E+001.6453948894E+01+
*       -1.384160347E+00               0
GRID*               2150               05.0000000000E+001.7912415498E+01+
*       1.3659593638E+00               0
GRID*               2151               05.0000000000E+001.8571706418E+01+
*       2.9436608142E-01               0
GRID*               2152               05.0000000000E+00-2.279657612E+01+
*       1.2455568458E+00               0
GRID*               2153               05.0000000000E+00-2.202708221E+01+
*       -5.612004225E-03               0
GRID*               2154               05.0000000000E+00-2.127176538E+01+
*       -1.255201689E+00               0
GRID*               2155               05.0000000000E+00-2.017103357E+01+
*       -1.250864333E+00               0
GRID*               2156               05.0000000000E+00-2.091379056E+01+
*       7.6661982204E-03               0
GRID*               2157               05.0000000000E+00-2.170267839E+01+
*       1.2561788230E+00               0
GRID*               2158               05.0000000000E+00-1.427775203E+01+
*       1.2532618711E+00               0
GRID*               2159               05.0000000000E+00-1.350192860E+01+
*       -8.092625632E-03               0
GRID*               2160               05.0000000000E+00-1.274579251E+01+
*       -1.268854241E+00               0
GRID*               2161               05.0000000000E+00-1.903777989E+01+
*       -1.249993912E+00               0
GRID*               2162               05.0000000000E+00-1.973170479E+01+
*       3.2846752620E-02               0
GRID*               2163               05.0000000000E+00-2.055846185E+01+
*       1.2871115272E+00               0
GRID*               2164               05.0000000000E+00-1.545282341E+01+
*       1.2462316195E+00               0
GRID*               2165               05.0000000000E+00-1.475237511E+01+
*       -3.804954731E-02               0
GRID*               2166               05.0000000000E+00-1.394947114E+01+
*       -1.294099470E+00               0
GRID*               2167               05.0000000000E+00-1.532511249E+01+
*       -1.432323559E+00               0
GRID*               2168               05.0000000000E+00-1.670797836E+01+
*       -1.292203441E+00               0
GRID*               2169               05.0000000000E+00-1.788707116E+01+
*       -1.259106755E+00               0
GRID*               2170               05.0000000000E+00-1.602289853E+01+
*       -3.608256864E-02               0
GRID*               2171               05.0000000000E+00-1.725806665E+01+
*       -3.374414193E-03               0
GRID*               2172               05.0000000000E+00-1.848627424E+01+
*       2.9857221922E-02               0
GRID*               2173               05.0000000000E+00-1.781364066E+01+
*       1.2871691020E+00               0
GRID*               2174               05.0000000000E+00-1.662368471E+01+
*       1.2548244323E+00               0
GRID*               2175               05.0000000000E+00-1.920245074E+01+
*       1.4273992732E+00               0
GRID*               2176               05.0000000000E+00-5.054149602E+01+
*       -1.378732612E+00               0
GRID*               2177               05.0000000000E+00-4.953214409E+01+
*       -2.011369280E-01               0
GRID*               2178               05.0000000000E+00-4.880979882E+01+
*       1.3631022041E+00               0
GRID*               2179               05.0000000000E+00-5.172158915E+01+
*       -1.301060082E+00               0
GRID*               2180               05.0000000000E+00-5.294339139E+01+
*       -1.303836771E+00               0
GRID*               2181               05.0000000000E+00-5.438703690E+01+
*       -1.436380080E+00               0
GRID*               2182               05.0000000000E+00-5.366281774E+01+
*       -3.651737970E-02               0
GRID*               2183               05.0000000000E+00-5.299189169E+01+
*       1.2544406125E+00               0
GRID*               2184               05.0000000000E+00-5.103875079E+01+
*       -4.817863405E-02               0
GRID*               2185               05.0000000000E+00-5.235202666E+01+
*       -2.855393680E-02               0
GRID*               2186               05.0000000000E+00-5.029285350E+01+
*       1.3981238410E+00               0
GRID*               2187               05.0000000000E+00-5.175403220E+01+
*       1.2673648567E+00               0
GRID*               2188               05.0000000000E+00-4.858300487E+01+
*       -1.326068106E+00               0
GRID*               2189               05.0000000000E+00-4.792780200E+01+
*       2.4041501034E-01               0
GRID*               2190               05.0000000000E+00-4.685149140E+01+
*       1.3804998179E+00               0
GRID*               2191               05.0000000000E+00-4.957407432E+01+
*       -1.617401112E+00               0
GRID*               2192               05.0000000000E+00-4.776964526E+01+
*       1.6287138567E+00               0
GRID*               2193               05.0000000000E+00-4.738573699E+01+
*       -1.218221439E+00               0
GRID*               2194               05.0000000000E+00-4.660184147E+01+
*       8.0933680808E-02               0
GRID*               2195               05.0000000000E+00-4.576587920E+01+
*       1.2924774737E+00               0
GRID*               2196               05.0000000000E+00-2.386852192E+01+
*       1.2433577276E+00               0
GRID*               2197               05.0000000000E+00-2.310270402E+01+
*       -7.687216503E-03               0
GRID*               2198               05.0000000000E+00-2.234466207E+01+
*       -1.254962367E+00               0
GRID*               2199               05.0000000000E+00-4.624373895E+01+
*       -1.229471062E+00               0
GRID*               2200               05.0000000000E+00-4.547037332E+01+
*       2.7500308082E-02               0
GRID*               2201               05.0000000000E+00-4.468165241E+01+
*       1.2629267900E+00               0
GRID*               2202               05.0000000000E+00-2.494287812E+01+
*       1.2478939021E+00               0
GRID*               2203               05.0000000000E+00-2.417439739E+01+
*       -4.686897296E-03               0
GRID*               2204               05.0000000000E+00-2.341051885E+01+
*       -1.253998962E+00               0
GRID*               2205               05.0000000000E+00-4.515223167E+01+
*       -1.242342314E+00               0
GRID*               2206               05.0000000000E+00-4.438162191E+01+
*       8.9431087287E-03               0
GRID*               2207               05.0000000000E+00-4.360180031E+01+
*       1.2566702207E+00               0
GRID*               2208               05.0000000000E+00-2.602808938E+01+
*       1.2484731704E+00               0
GRID*               2209               05.0000000000E+00-2.525576994E+01+
*       -6.031641911E-03               0
GRID*               2210               05.0000000000E+00-2.447890805E+01+
*       -1.255325842E+00               0
GRID*               2211               05.0000000000E+00-4.407551786E+01+
*       -1.248165719E+00               0
GRID*               2212               05.0000000000E+00-4.329387337E+01+
*       3.1526095243E-03               0
GRID*               2213               05.0000000000E+00-4.251426345E+01+
*       1.2510194144E+00               0
GRID*               2214               05.0000000000E+00-2.714073956E+01+
*       1.2461120417E+00               0
GRID*               2215               05.0000000000E+00-2.637050072E+01+
*       -1.506285135E-02               0
GRID*               2216               05.0000000000E+00-2.556434282E+01+
*       -1.262597072E+00               0
GRID*               2217               05.0000000000E+00-4.298612659E+01+
*       -1.257322701E+00               0
GRID*               2218               05.0000000000E+00-4.217494383E+01+
*       -1.107713929E-02               0
GRID*               2219               05.0000000000E+00-4.139897912E+01+
*       1.2464540848E+00               0
GRID*               2220               05.0000000000E+00-2.828889879E+01+
*       1.2445857464E+00               0
GRID*               2221               05.0000000000E+00-2.755699098E+01+
*       -4.057996069E-02               0
GRID*               2222               05.0000000000E+00-2.670102750E+01+
*       -1.292237383E+00               0
GRID*               2223               05.0000000000E+00-4.184446879E+01+
*       -1.289452017E+00               0
GRID*               2224               05.0000000000E+00-4.098457936E+01+
*       -3.920994982E-02               0
GRID*               2225               05.0000000000E+00-4.025088249E+01+
*       1.2451797648E+00               0
GRID*               2226               05.0000000000E+00-3.907616500E+01+
*       1.2520851230E+00               0
GRID*               2227               05.0000000000E+00-3.785036454E+01+
*       1.2790845732E+00               0
GRID*               2228               05.0000000000E+00-3.639703701E+01+
*       1.4201836703E+00               0
GRID*               2229               05.0000000000E+00-3.492297017E+01+
*       1.2902257707E+00               0
GRID*               2230               05.0000000000E+00-3.362385754E+01+
*       1.2901645646E+00               0
GRID*               2231               05.0000000000E+00-3.214753809E+01+
*       1.4207539421E+00               0
GRID*               2232               05.0000000000E+00-3.069091190E+01+
*       1.2803854581E+00               0
GRID*               2233               05.0000000000E+00-2.946591245E+01+
*       1.2515143673E+00               0
GRID*               2234               05.0000000000E+00-3.143911187E+01+
*       -7.238853701E-03               0
GRID*               2235               05.0000000000E+00-3.070394052E+01+
*       -1.297837377E+00               0
GRID*               2236               05.0000000000E+00-3.009193255E+01+
*       -1.831568091E-02               0
GRID*               2237               05.0000000000E+00-2.881892736E+01+
*       -4.071452741E-02               0
GRID*               2238               05.0000000000E+00-2.945203606E+01+
*       -1.302790386E+00               0
GRID*               2239               05.0000000000E+00-2.804708262E+01+
*       -1.433765415E+00               0
GRID*               2240               05.0000000000E+00-3.783027551E+01+
*       -1.297927881E+00               0
GRID*               2241               05.0000000000E+00-3.709801788E+01+
*       -7.787559778E-03               0
GRID*               2242               05.0000000000E+00-3.972090973E+01+
*       -4.019112285E-02               0
GRID*               2243               05.0000000000E+00-3.844462340E+01+
*       -1.863716471E-02               0
GRID*               2244               05.0000000000E+00-4.049266908E+01+
*       -1.432918613E+00               0
GRID*               2245               05.0000000000E+00-3.908371344E+01+
*       -1.302794013E+00               0
GRID*               2246               05.0000000000E+00-3.565916181E+01+
*       -3.812139112E-03               0
GRID*               2247               05.0000000000E+00-3.427016532E+01+
*       -2.473202043E-03               0
GRID*               2248               05.0000000000E+00-3.288054649E+01+
*       -3.700288395E-03               0
GRID*               2249               05.0000000000E+00-3.362204044E+01+
*       -1.294122888E+00               0
GRID*               2250               05.0000000000E+00-3.215781755E+01+
*       -1.426778006E+00               0
GRID*               2251               05.0000000000E+00-3.491269069E+01+
*       -1.294214931E+00               0
GRID*               2252               05.0000000000E+00-3.637620732E+01+
*       -1.426844116E+00               0
GRID*               2253               0-5.715664355E+00-1.265639191E+02+
*       3.5742673319E+00               0
GRID*               2254               05.7171495817E+00-1.234361707E+02+
*       3.5728577904E+00               0
GRID*               2255               03.3003188564E+00-1.298652620E+02+
*       3.6207387739E+00               0
GRID*               2256               0-3.309955148E+00-1.298663218E+02+
*       3.6144527023E+00               0
GRID*               2257               0-5.024431616E+00-1.279906011E+02+
*       3.6528181222E+00               0
GRID*               2258               0-4.427495853E+00-1.291796444E+02+
*       3.4110212561E+00               0
GRID*               2259               06.3900745759E-01-1.308916833E+02+
*       3.5746157543E+00               0
GRID*               2260               02.2330327346E+00-1.306759207E+02+
*       3.4010462912E+00               0
GRID*               2261               0-9.162456520E-01-1.307763304E+02+
*       3.6529484661E+00               0
GRID*               2262               0-2.235328311E+00-1.306701584E+02+
*       3.4043070367E+00               0
GRID*               2263               05.7158990803E+00-1.265639266E+02+
*       3.5740388744E+00               0
GRID*               2264               06.0881988257E+00-1.250002318E+02+
*       3.4118010019E+00               0
GRID*               2265               05.0240739229E+00-1.279904022E+02+
*       3.6532271928E+00               0
GRID*               2266               04.4256985297E+00-1.291798741E+02+
*       3.4121735873E+00               0
GRID*               2267               0-3.303085742E+00-1.201310205E+02+
*       3.6161050830E+00               0
GRID*               2268               0-5.716693030E+00-1.234354261E+02+
*       3.5731029484E+00               0
GRID*               2269               0-6.087960319E+00-1.250001239E+02+
*       3.4120395122E+00               0
GRID*               2270               0-5.020557578E+00-1.220101156E+02+
*       3.6565116765E+00               0
GRID*               2271               0-4.425651731E+00-1.208202842E+02+
*       3.4123168858E+00               0
GRID*               2272               03.2864581447E+00-1.201232786E+02+
*       3.6196085429E+00               0
GRID*               2273               05.0170972525E+00-1.220008676E+02+
*       3.6550144051E+00               0
GRID*               2274               04.4272821527E+00-1.208207577E+02+
*       3.4114530900E+00               0
GRID*               2275               09.1618768834E-01-1.192227199E+02+
*       3.6520201553E+00               0
GRID*               2276               02.2698718772E+00-1.193444114E+02+
*       3.4060183173E+00               0
GRID*               2277               0-6.401149758E-01-1.191089760E+02+
*       3.5751657572E+00               0
GRID*               2278               0-2.197935151E+00-1.193089791E+02+
*       3.3985561939E+00               0
GRID*               2279               03.2894046764E+002.9879534720E+01+
*       3.6156259433E+00               0
GRID*               2280               0-3.312120601E+002.0138495265E+01+
*       3.6172187965E+00               0
GRID*               2281               03.3078326959E+002.0136477847E+01+
*       3.6179594828E+00               0
GRID*               2282               05.6955764155E+002.3703735595E+01+
*       3.6585367055E+00               0
GRID*               2283               05.7168901797E+002.6566328733E+01+
*       3.5724031124E+00               0
GRID*               2284               06.0814454345E+002.5040667128E+01+
*       3.4183944670E+00               0
GRID*               2285               05.0212754897E+002.7990217266E+01+
*       3.6557247057E+00               0
GRID*               2286               04.4268228515E+002.9179473617E+01+
*       3.4116305761E+00               0
GRID*               2287               05.2220455736E+002.2199215515E+01+
*       3.5743038745E+00               0
GRID*               2288               04.4786564447E+002.0870566654E+01+
*       3.4086413677E+00               0
GRID*               2289               06.3974125750E-011.9109378584E+01+
*       3.5756038035E+00               0
GRID*               2290               0-9.157216521E-011.9226152392E+01+
*       3.6554880613E+00               0
GRID*               2291               0-2.235777182E+001.9333030125E+01+
*       3.4073068203E+00               0
GRID*               2292               02.1979799157E+001.9309869337E+01+
*       3.3993706626E+00               0
GRID*               2293               0-3.279596559E+002.9880135439E+01+
*       3.6205889609E+00               0
GRID*               2294               0-6.392099094E-013.0891217551E+01+
*       3.5750625886E+00               0
GRID*               2295               09.1594392151E-013.0774345276E+01+
*       3.6549604496E+00               0
GRID*               2296               02.2353736704E+003.0668168638E+01+
*       3.4063399602E+00               0
GRID*               2297               0-2.232984154E+003.0675773301E+01+
*       3.4011981775E+00               0
GRID*               2298               0-5.698427821E+002.3703196406E+01+
*       3.6556354429E+00               0
GRID*               2299               0-5.223809870E+002.2199575557E+01+
*       3.5725533019E+00               0
GRID*               2300               0-4.461519955E+002.0848740764E+01+
*       3.4055078205E+00               0
GRID*               2301               0-5.715214972E+002.6566086669E+01+
*       3.5740825647E+00               0
GRID*               2302               0-6.081545557E+002.5040556741E+01+
*       3.4182952057E+00               0
GRID*               2303               0-5.025126015E+002.7991619517E+01+
*       3.6517001019E+00               0
GRID*               2304               0-4.426246458E+002.9179261697E+01+
*       3.4121957144E+00               0
GRID*               2305               0-4.025331855E+001.5075612645E+01+
*       -2.500000000E+00               0
GRID*               2306               0-2.723532502E+001.5787933289E+01+
*       -2.500000000E+00               0
GRID*               2307               0-1.331301305E+001.6538949195E+01+
*       -2.500000000E+00               0
GRID*               2308               09.7126662617E-01-1.170248081E+02+
*       -2.500000000E+00               0
GRID*               2309               02.0676859015E+00-1.167646892E+02+
*       -2.500000000E+00               0
GRID*               2310               03.4473064335E+00-1.152100467E+02+
*       -2.500000000E+00               0
GRID*               2311               04.1479747412E+00-1.146986377E+02+
*       -2.500000000E+00               0
GRID*               2312               04.1804645123E+00-1.178398851E+02+
*       -2.500000000E+00               0
GRID*               2313               04.1626652841E+00-1.156865261E+02+
*       -2.500000000E+00               0
GRID*               2314               04.1422120820E+00-1.167459591E+02+
*       -2.500000000E+00               0
GRID*               2315               03.2668311034E+00-1.173298747E+02+
*       -2.500000000E+00               0
GRID*               2316               03.2417748318E+00-1.161554054E+02+
*       -2.500000000E+00               0
GRID*               2317               04.0775755762E+001.6800166326E+01+
*       -2.500000000E+00               0
GRID*               2318               03.2132579949E+001.7387533653E+01+
*       -2.500000000E+00               0
GRID*               2319               04.1344134206E+001.7853880801E+01+
*       -2.500000000E+00               0
GRID*               2320               0-3.972251836E+00-1.158021541E+02+
*       -2.500000000E+00               0
GRID*               2321               0-3.254323517E+00-1.165470852E+02+
*       -2.500000000E+00               0
GRID*               2322               0-2.325063111E+00-1.169875574E+02+
*       -2.500000000E+00               0
GRID*               2323               0-3.258064209E+00-1.174203894E+02+
*       -2.500000000E+00               0
GRID*               2324               0-4.141403709E+00-1.178120494E+02+
*       -2.500000000E+00               0
GRID*               2325               0-4.100708272E+00-1.168139697E+02+
*       -2.500000000E+00               0
GRID*               2326               03.7387435484E+00-4.434035306E+01+
*       -2.500000000E+00               0
GRID*               2327               02.3128769592E+00-4.523557434E+01+
*       -2.500000000E+00               0
GRID*               2328               07.8687055993E-01-4.619385763E+01+
*       -2.500000000E+00               0
GRID*               2329               0-7.859132225E-01-4.715644510E+01+
*       -2.500000000E+00               0
GRID*               2330               0-2.386790917E+00-4.807186212E+01+
*       -2.500000000E+00               0
GRID*               2331               0-3.867636342E+00-4.882013336E+01+
*       -2.500000000E+00               0
GRID*               2332               0-3.731311315E+00-1.443492101E+01+
*       -2.500000000E+00               0
GRID*               2333               0-2.355415681E+00-1.523167203E+01+
*       -2.500000000E+00               0
GRID*               2334               0-8.817839955E-01-1.626438355E+01+
*       -2.500000000E+00               0
GRID*               2335               07.8712257239E-01-1.734265571E+01+
*       -2.500000000E+00               0
GRID*               2336               02.4413280168E+00-1.830342651E+01+
*       -2.500000000E+00               0
GRID*               2337               03.8316107718E+00-1.904500286E+01+
*       -2.500000000E+00               0
GRID*               2338               0-3.747413235E+00-3.372569431E+01+
*       -2.500000000E+00               0
GRID*               2339               0-2.359768010E+00-3.287361390E+01+
*       -2.500000000E+00               0
GRID*               2340               0-8.076596731E-01-3.188051253E+01+
*       -2.500000000E+00               0
GRID*               2341               08.2200381687E-01-3.092343906E+01+
*       -2.500000000E+00               0
GRID*               2342               02.4088243663E+00-3.004619806E+01+
*       -2.500000000E+00               0
GRID*               2343               03.8582956129E+00-2.943365755E+01+
*       -2.500000000E+00               0
GRID*               2344               03.8801504598E+00-3.461441728E+01+
*       -2.500000000E+00               0
GRID*               2345               02.4779479499E+00-3.532450572E+01+
*       -2.500000000E+00               0
GRID*               2346               09.5743984218E-01-3.636294962E+01+
*       -2.500000000E+00               0
GRID*               2347               0-7.243061526E-01-3.744791992E+01+
*       -2.500000000E+00               0
GRID*               2348               0-2.379147462E+00-3.842652171E+01+
*       -2.500000000E+00               0
GRID*               2349               0-3.793376556E+00-3.920951980E+01+
*       -2.500000000E+00               0
GRID*               2350               0-3.835752255E+00-3.511720778E+01+
*       -2.500000000E+00               0
GRID*               2351               0-4.212776991E+00-3.643252151E+01+
*       -2.500000000E+00               0
GRID*               2352               0-3.848103072E+00-3.777245627E+01+
*       -2.500000000E+00               0
GRID*               2353               04.2316435465E+00-3.328624354E+01+
*       -2.500000000E+00               0
GRID*               2354               03.8605158017E+00-3.203858640E+01+
*       -2.500000000E+00               0
GRID*               2355               03.7707788114E+00-3.071176714E+01+
*       -2.500000000E+00               0
GRID*               2356               02.4038487817E+00-3.162776486E+01+
*       -2.500000000E+00               0
GRID*               2357               08.6560684076E-01-3.266741553E+01+
*       -2.500000000E+00               0
GRID*               2358               0-7.569018258E-01-3.365709675E+01+
*       -2.500000000E+00               0
GRID*               2359               0-2.348196016E+00-3.454310841E+01+
*       -2.500000000E+00               0
GRID*               2360               0-2.587659958E+00-3.646094506E+01+
*       -2.500000000E+00               0
GRID*               2361               0-7.568876712E-01-3.548937437E+01+
*       -2.500000000E+00               0
GRID*               2362               09.0423795457E-01-3.449144372E+01+
*       -2.500000000E+00               0
GRID*               2363               02.6619831729E+00-3.343269351E+01+
*       -2.500000000E+00               0
GRID*               2364               0-2.495522796E+00-4.014955820E+01+
*       -2.500000000E+00               0
GRID*               2365               0-2.821343666E+00-4.153210828E+01+
*       -2.500000000E+00               0
GRID*               2366               0-2.505162721E+00-4.290415149E+01+
*       -2.500000000E+00               0
GRID*               2367               0-2.364558572E+00-4.457890759E+01+
*       -2.500000000E+00               0
GRID*               2368               0-2.332764697E+00-4.629535713E+01+
*       -2.500000000E+00               0
GRID*               2369               0-3.757843321E+00-4.547470167E+01+
*       -2.500000000E+00               0
GRID*               2370               0-3.892664635E+00-4.713897496E+01+
*       -2.500000000E+00               0
GRID*               2371               0-3.875427489E+00-4.226671306E+01+
*       -2.500000000E+00               0
GRID*               2372               0-3.983695544E+00-4.074983179E+01+
*       -2.500000000E+00               0
GRID*               2373               0-3.915257366E+00-4.384357779E+01+
*       -2.500000000E+00               0
GRID*               2374               0-8.871505660E-01-4.358105280E+01+
*       -2.500000000E+00               0
GRID*               2375               07.1398275657E-01-4.259363165E+01+
*       -2.500000000E+00               0
GRID*               2376               02.3560272097E+00-4.177068264E+01+
*       -2.500000000E+00               0
GRID*               2377               03.8075701217E+00-4.108085415E+01+
*       -2.500000000E+00               0
GRID*               2378               0-8.081831238E-01-4.537064208E+01+
*       -2.500000000E+00               0
GRID*               2379               07.3632049813E-01-4.441632721E+01+
*       -2.500000000E+00               0
GRID*               2380               02.2913076989E+00-4.351066674E+01+
*       -2.500000000E+00               0
GRID*               2381               03.8710864069E+00-4.269510254E+01+
*       -2.500000000E+00               0
GRID*               2382               0-7.860109219E-01-3.945888009E+01+
*       -2.500000000E+00               0
GRID*               2383               0-1.132923999E+00-4.155655690E+01+
*       -2.500000000E+00               0
GRID*               2384               03.9799146034E+00-3.972002075E+01+
*       -2.500000000E+00               0
GRID*               2385               04.3326928926E+00-3.850389394E+01+
*       -2.500000000E+00               0
GRID*               2386               03.9924978051E+00-3.730381921E+01+
*       -2.500000000E+00               0
GRID*               2387               03.8414741097E+00-3.598797805E+01+
*       -2.500000000E+00               0
GRID*               2388               02.6253279298E+00-3.698666416E+01+
*       -2.500000000E+00               0
GRID*               2389               03.1443025000E+00-3.851147630E+01+
*       -2.500000000E+00               0
GRID*               2390               02.5768392324E+00-4.005301630E+01+
*       -2.500000000E+00               0
GRID*               2391               01.2342999531E+00-3.849730487E+01+
*       -2.500000000E+00               0
GRID*               2392               08.3353370923E-01-4.066285363E+01+
*       -2.500000000E+00               0
GRID*               2393               0-3.874573646E+00-2.297211411E+01+
*       -2.500000000E+00               0
GRID*               2394               0-2.443838442E+00-2.365771103E+01+
*       -2.500000000E+00               0
GRID*               2395               0-8.035040559E-01-2.460245888E+01+
*       -2.500000000E+00               0
GRID*               2396               09.0056806214E-01-2.553951237E+01+
*       -2.500000000E+00               0
GRID*               2397               02.7110663439E+00-2.642851245E+01+
*       -2.500000000E+00               0
GRID*               2398               03.9846945543E+00-2.739274737E+01+
*       -2.500000000E+00               0
GRID*               2399               08.7652778577E-01-2.918689394E+01+
*       -2.500000000E+00               0
GRID*               2400               09.3565530373E-01-2.738421940E+01+
*       -2.500000000E+00               0
GRID*               2401               02.7045891438E+00-2.833047229E+01+
*       -2.500000000E+00               0
GRID*               2402               04.1510759380E+00-2.841515006E+01+
*       -2.500000000E+00               0
GRID*               2403               0-8.016356226E-01-3.007905730E+01+
*       -2.500000000E+00               0
GRID*               2404               0-7.540364775E-01-2.830405060E+01+
*       -2.500000000E+00               0
GRID*               2405               0-7.805419426E-01-2.649447319E+01+
*       -2.500000000E+00               0
GRID*               2406               0-2.359591984E+00-2.749748672E+01+
*       -2.500000000E+00               0
GRID*               2407               0-3.750006562E+00-2.836191186E+01+
*       -2.500000000E+00               0
GRID*               2408               0-2.619181215E+00-2.560812156E+01+
*       -2.500000000E+00               0
GRID*               2409               0-3.843472640E+00-2.697607281E+01+
*       -2.500000000E+00               0
GRID*               2410               0-4.224144804E+00-2.567590059E+01+
*       -2.500000000E+00               0
GRID*               2411               0-3.879490297E+00-2.434234484E+01+
*       -2.500000000E+00               0
GRID*               2412               0-3.839731133E+00-2.974413576E+01+
*       -2.500000000E+00               0
GRID*               2413               0-4.214241500E+00-3.105268331E+01+
*       -2.500000000E+00               0
GRID*               2414               0-3.838829631E+00-3.234857653E+01+
*       -2.500000000E+00               0
GRID*               2415               0-2.603124960E+00-3.102064484E+01+
*       -2.500000000E+00               0
GRID*               2416               0-2.356708842E+00-2.915919984E+01+
*       -2.500000000E+00               0
GRID*               2417               0-3.927764824E+00-2.080319875E+01+
*       -2.500000000E+00               0
GRID*               2418               0-2.667377808E+00-2.178840262E+01+
*       -2.500000000E+00               0
GRID*               2419               0-7.805195584E-01-2.265827329E+01+
*       -2.500000000E+00               0
GRID*               2420               09.3993777168E-01-2.369082622E+01+
*       -2.500000000E+00               0
GRID*               2421               02.4879325648E+00-2.467590698E+01+
*       -2.500000000E+00               0
GRID*               2422               03.8859565520E+00-2.533960320E+01+
*       -2.500000000E+00               0
GRID*               2423               04.1584111333E+00-2.637107595E+01+
*       -2.500000000E+00               0
GRID*               2424               0-4.133499756E+00-2.189839032E+01+
*       -2.500000000E+00               0
GRID*               2425               0-3.782587447E+00-1.576446536E+01+
*       -2.500000000E+00               0
GRID*               2426               0-3.973328434E+00-1.705785977E+01+
*       -2.500000000E+00               0
GRID*               2427               0-4.334678876E+00-1.824748384E+01+
*       -2.500000000E+00               0
GRID*               2428               0-4.014270566E+00-1.948378534E+01+
*       -2.500000000E+00               0
GRID*               2429               03.8423009203E+00-2.405079595E+01+
*       -2.500000000E+00               0
GRID*               2430               03.9931366419E+00-2.276461280E+01+
*       -2.500000000E+00               0
GRID*               2431               04.3362048205E+00-2.158011328E+01+
*       -2.500000000E+00               0
GRID*               2432               03.9907976024E+00-2.037228928E+01+
*       -2.500000000E+00               0
GRID*               2433               02.6253469510E+00-2.306284664E+01+
*       -2.500000000E+00               0
GRID*               2434               03.1514691113E+00-2.156168048E+01+
*       -2.500000000E+00               0
GRID*               2435               02.6023489229E+00-2.002434305E+01+
*       -2.500000000E+00               0
GRID*               2436               01.2208384606E+00-2.157019450E+01+
*       -2.500000000E+00               0
GRID*               2437               08.4165834680E-01-1.936732581E+01+
*       -2.500000000E+00               0
GRID*               2438               0-8.764711711E-01-2.061545124E+01+
*       -2.500000000E+00               0
GRID*               2439               0-1.212391887E+00-1.837481476E+01+
*       -2.500000000E+00               0
GRID*               2440               0-2.658333029E+00-1.990207436E+01+
*       -2.500000000E+00               0
GRID*               2441               0-3.149423830E+00-1.831303753E+01+
*       -2.500000000E+00               0
GRID*               2442               0-2.579728689E+00-1.681805127E+01+
*       -2.500000000E+00               0
GRID*               2443               0-3.919733192E+00-4.753618911E+00+
*       -2.500000000E+00               0
GRID*               2444               0-2.754546837E+00-3.676092030E+00+
*       -2.500000000E+00               0
GRID*               2445               0-9.111210738E-01-2.760238653E+00+
*       -2.500000000E+00               0
GRID*               2446               09.6105088133E-01-1.918475028E+00+
*       -2.500000000E+00               0
GRID*               2447               02.6966057003E+00-1.280185015E+00+
*       -2.500000000E+00               0
GRID*               2448               04.2484733928E+004.4148095038E-02+
*       -2.500000000E+00               0
GRID*               2449               0-3.804147229E+00-9.014444780E+00+
*       -2.500000000E+00               0
GRID*               2450               0-2.401035372E+00-9.821429535E+00+
*       -2.500000000E+00               0
GRID*               2451               0-7.642495988E-01-1.078558112E+01+
*       -2.500000000E+00               0
GRID*               2452               08.9681096866E-01-1.180805462E+01+
*       -2.500000000E+00               0
GRID*               2453               02.3998239147E+00-1.278682659E+01+
*       -2.500000000E+00               0
GRID*               2454               03.7757326385E+00-1.363243947E+01+
*       -2.500000000E+00               0
GRID*               2455               03.8763524182E+00-1.765948746E+01+
*       -2.500000000E+00               0
GRID*               2456               04.2303298490E+00-1.634526302E+01+
*       -2.500000000E+00               0
GRID*               2457               03.8572303797E+00-1.504210530E+01+
*       -2.500000000E+00               0
GRID*               2458               02.6310921786E+00-1.636865372E+01+
*       -2.500000000E+00               0
GRID*               2459               02.3921727030E+00-1.446744183E+01+
*       -2.500000000E+00               0
GRID*               2460               08.2477011512E-01-1.541791804E+01+
*       -2.500000000E+00               0
GRID*               2461               08.2707826049E-01-1.360899630E+01+
*       -2.500000000E+00               0
GRID*               2462               0-7.921163997E-01-1.447224146E+01+
*       -2.500000000E+00               0
GRID*               2463               0-7.937183443E-01-1.267994532E+01+
*       -2.500000000E+00               0
GRID*               2464               0-2.357926487E+00-1.361620803E+01+
*       -2.500000000E+00               0
GRID*               2465               0-2.603123276E+00-1.173709924E+01+
*       -2.500000000E+00               0
GRID*               2466               0-3.835457933E+00-1.306150663E+01+
*       -2.500000000E+00               0
GRID*               2467               0-4.215281075E+00-1.175441699E+01+
*       -2.500000000E+00               0
GRID*               2468               0-3.855791723E+00-1.042721851E+01+
*       -2.500000000E+00               0
GRID*               2469               08.1812761459E-01-3.863066186E+00+
*       -2.500000000E+00               0
GRID*               2470               07.1843043685E-01-5.774331056E+00+
*       -2.500000000E+00               0
GRID*               2471               07.9975771960E-01-7.703864111E+00+
*       -2.500000000E+00               0
GRID*               2472               01.1399857991E+00-9.774434351E+00+
*       -2.500000000E+00               0
GRID*               2473               0-2.615547291E+00-5.455886885E+00+
*       -2.500000000E+00               0
GRID*               2474               0-2.871677674E+00-6.775429266E+00+
*       -2.500000000E+00               0
GRID*               2475               0-2.528438614E+00-8.127189801E+00+
*       -2.500000000E+00               0
GRID*               2476               0-3.907447221E+00-6.023707056E+00+
*       -2.500000000E+00               0
GRID*               2477               0-4.003353492E+00-7.474786027E+00+
*       -2.500000000E+00               0
GRID*               2478               0-8.314931077E-01-8.832795862E+00+
*       -2.500000000E+00               0
GRID*               2479               0-9.867981796E-01-4.714464449E+00+
*       -2.500000000E+00               0
GRID*               2480               0-1.187316923E+00-6.766695438E+00+
*       -2.500000000E+00               0
GRID*               2481               03.8760537954E+00-4.237933110E+00+
*       -2.500000000E+00               0
GRID*               2482               02.4014380600E+00-4.908295798E+00+
*       -2.500000000E+00               0
GRID*               2483               02.6928781661E+00-3.066792824E+00+
*       -2.500000000E+00               0
GRID*               2484               03.9475363985E+00-2.099435392E+00+
*       -2.500000000E+00               0
GRID*               2485               04.1432504795E+00-3.152364978E+00+
*       -2.500000000E+00               0
GRID*               2486               04.0240123365E+00-8.965574151E-01+
*       -2.500000000E+00               0
GRID*               2487               02.3640713852E+00-6.673137271E+00+
*       -2.500000000E+00               0
GRID*               2488               02.5067264872E+00-8.383775095E+00+
*       -2.500000000E+00               0
GRID*               2489               02.8426040619E+00-9.760851418E+00+
*       -2.500000000E+00               0
GRID*               2490               02.5306774485E+00-1.112364959E+01+
*       -2.500000000E+00               0
GRID*               2491               03.8878515058E+00-1.050172276E+01+
*       -2.500000000E+00               0
GRID*               2492               03.9279994537E+00-1.205708118E+01+
*       -2.500000000E+00               0
GRID*               2493               03.8032837794E+00-7.444361912E+00+
*       -2.500000000E+00               0
GRID*               2494               03.9085174749E+00-5.812239109E+00+
*       -2.500000000E+00               0
GRID*               2495               03.9917906108E+00-9.000324070E+00+
*       -2.500000000E+00               0
GRID*               2496               03.7714906209E+001.1473065854E+01+
*       -2.500000000E+00               0
GRID*               2497               02.4273073959E+001.0633544710E+01+
*       -2.500000000E+00               0
GRID*               2498               08.9776623487E-019.6766027666E+00+
*       -2.500000000E+00               0
GRID*               2499               0-7.352643087E-018.7447136743E+00+
*       -2.500000000E+00               0
GRID*               2500               0-2.359665934E+007.8509897859E+00+
*       -2.500000000E+00               0
GRID*               2501               0-3.840672672E+007.1035497734E+00+
*       -2.500000000E+00               0
GRID*               2502               03.8131466635E+001.2794773378E+01+
*       -2.500000000E+00               0
GRID*               2503               04.0289861373E+001.4261654076E+01+
*       -2.500000000E+00               0
GRID*               2504               04.0162674470E+001.5679209643E+01+
*       -2.500000000E+00               0
GRID*               2505               02.2340354160E+001.6990791427E+01+
*       -2.500000000E+00               0
GRID*               2506               01.0492592776E+001.6524948512E+01+
*       -2.500000000E+00               0
GRID*               2507               0-1.432332856E-011.5640300020E+01+
*       -2.500000000E+00               0
GRID*               2508               0-1.465733821E+001.5030314677E+01+
*       -2.500000000E+00               0
GRID*               2509               0-2.703253232E+001.4347185923E+01+
*       -2.500000000E+00               0
GRID*               2510               0-3.870656555E+001.3544567354E+01+
*       -2.500000000E+00               0
GRID*               2511               0-9.593599363E-021.6798406691E+01+
*       -2.500000000E+00               0
GRID*               2512               08.8286713586E-011.1420123697E+01+
*       -2.500000000E+00               0
GRID*               2513               01.0330575744E+001.3127197657E+01+
*       -2.500000000E+00               0
GRID*               2514               01.3214577372E+001.4894520712E+01+
*       -2.500000000E+00               0
GRID*               2515               02.4294762906E+001.2196567354E+01+
*       -2.500000000E+00               0
GRID*               2516               03.0935154547E+001.6336571483E+01+
*       -2.500000000E+00               0
GRID*               2517               02.8787291435E+001.5156266178E+01+
*       -2.500000000E+00               0
GRID*               2518               02.5923125864E+001.3737773972E+01+
*       -2.500000000E+00               0
GRID*               2519               02.1374244240E+001.6001050083E+01+
*       -2.500000000E+00               0
GRID*               2520               0-3.756683434E+001.0334664848E+01+
*       -2.500000000E+00               0
GRID*               2521               0-2.360043733E+001.1275615519E+01+
*       -2.500000000E+00               0
GRID*               2522               0-8.003317394E-011.2444572251E+01+
*       -2.500000000E+00               0
GRID*               2523               0-3.882188071E+008.6869019065E+00+
*       -2.500000000E+00               0
GRID*               2524               0-2.307978746E+009.5684279792E+00+
*       -2.500000000E+00               0
GRID*               2525               0-7.373541773E-011.0517209353E+01+
*       -2.500000000E+00               0
GRID*               2526               0-2.777263263E-011.4163027479E+01+
*       -2.500000000E+00               0
GRID*               2527               0-3.919565262E+001.1957663773E+01+
*       -2.500000000E+00               0
GRID*               2528               0-1.573603698E+001.3794769295E+01+
*       -2.500000000E+00               0
GRID*               2529               0-2.549863405E+001.2904214253E+01+
*       -2.500000000E+00               0
GRID*               2530               0-3.994035863E+00-5.279373249E-01+
*       -2.500000000E+00               0
GRID*               2531               0-2.666318379E+004.4339236527E-01+
*       -2.500000000E+00               0
GRID*               2532               0-7.294276364E-011.3390637932E+00+
*       -2.500000000E+00               0
GRID*               2533               09.9070151958E-012.3570702796E+00+
*       -2.500000000E+00               0
GRID*               2534               02.5325116041E+003.3464705577E+00+
*       -2.500000000E+00               0
GRID*               2535               03.9085164524E+004.1100716579E+00+
*       -2.500000000E+00               0
GRID*               2536               04.0274231684E+001.0522502187E+00+
*       -2.500000000E+00               0
GRID*               2537               04.0102964748E+002.5596693863E+00+
*       -2.500000000E+00               0
GRID*               2538               03.1877865875E+001.2271313629E-01+
*       -2.500000000E+00               0
GRID*               2539               02.6895670570E+001.6147508069E+00+
*       -2.500000000E+00               0
GRID*               2540               01.2894204782E+002.1509666972E-01+
*       -2.500000000E+00               0
GRID*               2541               0-8.038185362E-01-7.236009080E-01+
*       -2.500000000E+00               0
GRID*               2542               0-2.755478508E+00-1.639638373E+00+
*       -2.500000000E+00               0
GRID*               2543               0-4.012829492E+00-2.643791764E+00+
*       -2.500000000E+00               0
GRID*               2544               0-4.195089867E+00-1.585369126E+00+
*       -2.500000000E+00               0
GRID*               2545               0-4.176315642E+00-3.698124224E+00+
*       -2.500000000E+00               0
GRID*               2546               02.6810039261E+005.1778120131E+00+
*       -2.500000000E+00               0
GRID*               2547               02.4967154878E+006.9697989199E+00+
*       -2.500000000E+00               0
GRID*               2548               02.6766196890E+008.8264378668E+00+
*       -2.500000000E+00               0
GRID*               2549               03.8914436720E+006.2608045670E+00+
*       -2.500000000E+00               0
GRID*               2550               04.1355132732E+005.2030135702E+00+
*       -2.500000000E+00               0
GRID*               2551               03.8692672351E+001.0141935821E+01+
*       -2.500000000E+00               0
GRID*               2552               04.2411373284E+008.8791899453E+00+
*       -2.500000000E+00               0
GRID*               2553               03.9027840400E+007.5879152114E+00+
*       -2.500000000E+00               0
GRID*               2554               09.3248441198E-014.2273413702E+00+
*       -2.500000000E+00               0
GRID*               2555               09.1045101474E-016.0606998100E+00+
*       -2.500000000E+00               0
GRID*               2556               09.0943085495E-017.8699039883E+00+
*       -2.500000000E+00               0
GRID*               2557               0-7.684787569E-015.1138410447E+00+
*       -2.500000000E+00               0
GRID*               2558               0-2.580419901E+006.0039584928E+00+
*       -2.500000000E+00               0
GRID*               2559               0-7.665437312E-016.9431527330E+00+
*       -2.500000000E+00               0
GRID*               2560               0-7.244373367E-013.2624736221E+00+
*       -2.500000000E+00               0
GRID*               2561               0-2.385481761E+002.3620114447E+00+
*       -2.500000000E+00               0
GRID*               2562               0-2.374264918E+004.1428858406E+00+
*       -2.500000000E+00               0
GRID*               2563               0-3.872692334E+001.6631365535E+00+
*       -2.500000000E+00               0
GRID*               2564               0-4.149498381E+005.5098704855E-01+
*       -2.500000000E+00               0
GRID*               2565               0-3.847243300E+004.8605400963E+00+
*       -2.500000000E+00               0
GRID*               2566               0-4.094733207E+005.9791539723E+00+
*       -2.500000000E+00               0
GRID*               2567               0-3.914174210E+003.2645667760E+00+
*       -2.500000000E+00               0
GRID*               2568               0-3.747102677E+00-8.595147334E+01+
*       -2.500000000E+00               0
GRID*               2569               0-2.308001639E+00-8.519142104E+01+
*       -2.500000000E+00               0
GRID*               2570               0-7.616789699E-01-8.433203761E+01+
*       -2.500000000E+00               0
GRID*               2571               07.8892630147E-01-8.339959198E+01+
*       -2.500000000E+00               0
GRID*               2572               02.3078722108E+00-8.244474642E+01+
*       -2.500000000E+00               0
GRID*               2573               03.7340434583E+00-8.153541217E+01+
*       -2.500000000E+00               0
GRID*               2574               0-3.996595845E+00-1.017791727E+02+
*       -2.500000000E+00               0
GRID*               2575               0-2.723759002E+00-1.027193853E+02+
*       -2.500000000E+00               0
GRID*               2576               0-8.977033050E-01-1.035544221E+02+
*       -2.500000000E+00               0
GRID*               2577               08.1890548885E-01-1.044448091E+02+
*       -2.500000000E+00               0
GRID*               2578               02.4600739389E+00-1.053808152E+02+
*       -2.500000000E+00               0
GRID*               2579               03.8881581343E+00-1.060869041E+02+
*       -2.500000000E+00               0
GRID*               2580               08.5788952146E-01-1.063444589E+02+
*       -2.500000000E+00               0
GRID*               2581               0-8.669710217E-01-1.073144484E+02+
*       -2.500000000E+00               0
GRID*               2582               0-2.728552127E+00-1.082390442E+02+
*       -2.500000000E+00               0
GRID*               2583               0-4.017942540E+00-1.092401464E+02+
*       -2.500000000E+00               0
GRID*               2584               0-8.372841859E-01-1.054320288E+02+
*       -2.500000000E+00               0
GRID*               2585               0-2.462009507E+00-1.063551890E+02+
*       -2.500000000E+00               0
GRID*               2586               0-2.465676244E+00-1.045869435E+02+
*       -2.500000000E+00               0
GRID*               2587               0-3.903576714E+00-1.070859084E+02+
*       -2.500000000E+00               0
GRID*               2588               0-4.170684213E+00-1.081853664E+02+
*       -2.500000000E+00               0
GRID*               2589               0-3.902542061E+00-1.039254717E+02+
*       -2.500000000E+00               0
GRID*               2590               0-4.164967285E+00-1.028380883E+02+
*       -2.500000000E+00               0
GRID*               2591               0-3.951106277E+00-1.055068933E+02+
*       -2.500000000E+00               0
GRID*               2592               03.9306704039E+00-1.124399376E+02+
*       -2.500000000E+00               0
GRID*               2593               02.7185678050E+00-1.113171753E+02+
*       -2.500000000E+00               0
GRID*               2594               08.8138639427E-01-1.102661568E+02+
*       -2.500000000E+00               0
GRID*               2595               0-9.257544960E-01-1.092648259E+02+
*       -2.500000000E+00               0
GRID*               2596               04.0013146869E+00-1.082130414E+02+
*       -2.500000000E+00               0
GRID*               2597               02.7129256705E+00-1.072417552E+02+
*       -2.500000000E+00               0
GRID*               2598               04.1612673365E+00-1.071542782E+02+
*       -2.500000000E+00               0
GRID*               2599               09.0133490606E-01-1.082816140E+02+
*       -2.500000000E+00               0
GRID*               2600               02.7680432334E+00-1.092682998E+02+
*       -2.500000000E+00               0
GRID*               2601               04.0103826438E+00-1.103094009E+02+
*       -2.500000000E+00               0
GRID*               2602               04.1745803329E+00-1.113698399E+02+
*       -2.500000000E+00               0
GRID*               2603               04.1981616755E+00-1.092592306E+02+
*       -2.500000000E+00               0
GRID*               2604               0-9.481076585E-01-1.112308120E+02+
*       -2.500000000E+00               0
GRID*               2605               0-2.748463523E+00-1.122360528E+02+
*       -2.500000000E+00               0
GRID*               2606               0-3.895993218E+00-1.133663750E+02+
*       -2.500000000E+00               0
GRID*               2607               0-2.793576616E+00-1.102585339E+02+
*       -2.500000000E+00               0
GRID*               2608               0-4.021460484E+00-1.113076252E+02+
*       -2.500000000E+00               0
GRID*               2609               0-4.208791261E+00-1.102792752E+02+
*       -2.500000000E+00               0
GRID*               2610               0-4.173548818E+00-1.123473638E+02+
*       -2.500000000E+00               0
GRID*               2611               02.2646678522E+00-1.151338608E+02+
*       -2.500000000E+00               0
GRID*               2612               07.2062556758E-01-1.140978475E+02+
*       -2.500000000E+00               0
GRID*               2613               0-9.331454874E-01-1.131121864E+02+
*       -2.500000000E+00               0
GRID*               2614               03.3165177337E+00-1.144202003E+02+
*       -2.500000000E+00               0
GRID*               2615               04.0128198826E+00-1.136653154E+02+
*       -2.500000000E+00               0
GRID*               2616               02.5381375452E+00-1.133239467E+02+
*       -2.500000000E+00               0
GRID*               2617               08.2705621866E-01-1.122275605E+02+
*       -2.500000000E+00               0
GRID*               2618               0-9.980616885E-01-1.165258558E+02+
*       -2.500000000E+00               0
GRID*               2619               06.0810659981E-01-1.158938953E+02+
*       -2.500000000E+00               0
GRID*               2620               01.5687833694E-01-1.169659939E+02+
*       -2.500000000E+00               0
GRID*               2621               0-3.836537071E+00-1.146294522E+02+
*       -2.500000000E+00               0
GRID*               2622               0-2.549112872E+00-1.156127022E+02+
*       -2.500000000E+00               0
GRID*               2623               0-9.443412123E-01-1.148713137E+02+
*       -2.500000000E+00               0
GRID*               2624               0-2.493387446E+00-1.139755303E+02+
*       -2.500000000E+00               0
GRID*               2625               0-7.650049508E-01-8.611536106E+01+
*       -2.500000000E+00               0
GRID*               2626               0-8.210411308E-01-8.796594600E+01+
*       -2.500000000E+00               0
GRID*               2627               0-8.514966611E-01-8.989014305E+01+
*       -2.500000000E+00               0
GRID*               2628               0-8.662899065E-01-9.184063478E+01+
*       -2.500000000E+00               0
GRID*               2629               0-8.724680957E-01-9.381952986E+01+
*       -2.500000000E+00               0
GRID*               2630               0-8.763897475E-01-9.580874154E+01+
*       -2.500000000E+00               0
GRID*               2631               0-8.932411808E-01-9.779442515E+01+
*       -2.500000000E+00               0
GRID*               2632               0-9.222135881E-01-9.972401208E+01+
*       -2.500000000E+00               0
GRID*               2633               0-9.574631959E-01-1.016445691E+02+
*       -2.500000000E+00               0
GRID*               2634               0-3.902456205E+00-9.562989567E+01+
*       -2.500000000E+00               0
GRID*               2635               0-2.488074375E+00-9.485738358E+01+
*       -2.500000000E+00               0
GRID*               2636               0-3.908345470E+00-9.965939296E+01+
*       -2.500000000E+00               0
GRID*               2637               0-2.738292283E+00-1.007280850E+02+
*       -2.500000000E+00               0
GRID*               2638               0-4.168021515E+00-1.007423716E+02+
*       -2.500000000E+00               0
GRID*               2639               0-4.249368564E+00-9.699784534E+01+
*       -2.500000000E+00               0
GRID*               2640               0-3.913648922E+00-9.829694972E+01+
*       -2.500000000E+00               0
GRID*               2641               0-2.690362224E+00-9.689463814E+01+
*       -2.500000000E+00               0
GRID*               2642               0-2.517497709E+00-9.885865679E+01+
*       -2.500000000E+00               0
GRID*               2643               0-2.474834611E+00-9.080931475E+01+
*       -2.500000000E+00               0
GRID*               2644               0-3.893025737E+00-9.002272906E+01+
*       -2.500000000E+00               0
GRID*               2645               0-3.851821096E+00-8.736639061E+01+
*       -2.500000000E+00               0
GRID*               2646               0-4.231672474E+00-8.865485835E+01+
*       -2.500000000E+00               0
GRID*               2647               0-2.640863646E+00-8.879711335E+01+
*       -2.500000000E+00               0
GRID*               2648               0-2.359809221E+00-8.688646782E+01+
*       -2.500000000E+00               0
GRID*               2649               0-2.676912731E+00-9.282841622E+01+
*       -2.500000000E+00               0
GRID*               2650               0-3.903717525E+00-9.417173669E+01+
*       -2.500000000E+00               0
GRID*               2651               0-4.247160483E+00-9.282404664E+01+
*       -2.500000000E+00               0
GRID*               2652               0-3.900104896E+00-9.147957820E+01+
*       -2.500000000E+00               0
GRID*               2653               08.3132986505E-01-9.480894058E+01+
*       -2.500000000E+00               0
GRID*               2654               02.4526174863E+00-9.582599484E+01+
*       -2.500000000E+00               0
GRID*               2655               03.8828789410E+00-9.659727973E+01+
*       -2.500000000E+00               0
GRID*               2656               08.1962056720E-01-9.680503656E+01+
*       -2.500000000E+00               0
GRID*               2657               07.8524521059E-01-9.877141689E+01+
*       -2.500000000E+00               0
GRID*               2658               07.3496003091E-01-1.006595731E+02+
*       -2.500000000E+00               0
GRID*               2659               07.7560447079E-01-1.025368527E+02+
*       -2.500000000E+00               0
GRID*               2660               03.7487042864E+00-1.006729691E+02+
*       -2.500000000E+00               0
GRID*               2661               02.3516516970E+00-1.015182918E+02+
*       -2.500000000E+00               0
GRID*               2662               03.8455945788E+00-9.927237714E+01+
*       -2.500000000E+00               0
GRID*               2663               04.2257720419E+00-9.797136627E+01+
*       -2.500000000E+00               0
GRID*               2664               02.6236434403E+00-9.786582564E+01+
*       -2.500000000E+00               0
GRID*               2665               02.3542543390E+00-9.980564354E+01+
*       -2.500000000E+00               0
GRID*               2666               02.6217778039E+00-1.034391431E+02+
*       -2.500000000E+00               0
GRID*               2667               03.8419075577E+00-1.020830475E+02+
*       -2.500000000E+00               0
GRID*               2668               04.2242867136E+00-1.033955788E+02+
*       -2.500000000E+00               0
GRID*               2669               03.8857983327E+00-1.047224156E+02+
*       -2.500000000E+00               0
GRID*               2670               03.8699191474E+00-8.892851603E+01+
*       -2.500000000E+00               0
GRID*               2671               02.4614621491E+00-8.813529997E+01+
*       -2.500000000E+00               0
GRID*               2672               08.6665364154E-01-8.710503808E+01+
*       -2.500000000E+00               0
GRID*               2673               08.5627414469E-01-8.522013952E+01+
*       -2.500000000E+00               0
GRID*               2674               02.3935195413E+00-8.421002504E+01+
*       -2.500000000E+00               0
GRID*               2675               02.6522239631E+00-8.619534607E+01+
*       -2.500000000E+00               0
GRID*               2676               03.8868812902E+00-8.319161566E+01+
*       -2.500000000E+00               0
GRID*               2677               03.8748668926E+00-8.487167533E+01+
*       -2.500000000E+00               0
GRID*               2678               04.2352383680E+00-8.625311955E+01+
*       -2.500000000E+00               0
GRID*               2679               03.8897588260E+00-8.756489059E+01+
*       -2.500000000E+00               0
GRID*               2680               08.5264489598E-01-8.899407619E+01+
*       -2.500000000E+00               0
GRID*               2681               08.4112241449E-01-9.089558539E+01+
*       -2.500000000E+00               0
GRID*               2682               08.3778379605E-01-9.283016369E+01+
*       -2.500000000E+00               0
GRID*               2683               03.8694399511E+00-9.108822986E+01+
*       -2.500000000E+00               0
GRID*               2684               02.4587104310E+00-9.183559498E+01+
*       -2.500000000E+00               0
GRID*               2685               04.1147580429E+00-9.001132691E+01+
*       -2.500000000E+00               0
GRID*               2686               02.6401131518E+00-8.998420274E+01+
*       -2.500000000E+00               0
GRID*               2687               02.6553495060E+00-9.380910263E+01+
*       -2.500000000E+00               0
GRID*               2688               03.8897478504E+00-9.245822332E+01+
*       -2.500000000E+00               0
GRID*               2689               04.2392204434E+00-9.377989402E+01+
*       -2.500000000E+00               0
GRID*               2690               03.8898129218E+00-9.513434601E+01+
*       -2.500000000E+00               0
GRID*               2691               0-3.807378303E+00-7.010590246E+01+
*       -2.500000000E+00               0
GRID*               2692               0-2.423685759E+00-6.940584196E+01+
*       -2.500000000E+00               0
GRID*               2693               0-8.527439063E-01-6.837793298E+01+
*       -2.500000000E+00               0
GRID*               2694               08.2577046210E-01-6.715844266E+01+
*       -2.500000000E+00               0
GRID*               2695               02.4087934716E+00-6.612854355E+01+
*       -2.500000000E+00               0
GRID*               2696               03.8031415003E+00-6.542487493E+01+
*       -2.500000000E+00               0
GRID*               2697               03.8260669033E+00-7.189826326E+01+
*       -2.500000000E+00               0
GRID*               2698               02.4251514695E+00-7.266543920E+01+
*       -2.500000000E+00               0
GRID*               2699               08.2084691432E-01-7.364432011E+01+
*       -2.500000000E+00               0
GRID*               2700               0-8.485158429E-01-7.479826752E+01+
*       -2.500000000E+00               0
GRID*               2701               0-2.402527048E+00-7.580457494E+01+
*       -2.500000000E+00               0
GRID*               2702               0-3.792481249E+00-7.652860885E+01+
*       -2.500000000E+00               0
GRID*               2703               03.9790619095E+00-7.051680649E+01+
*       -2.500000000E+00               0
GRID*               2704               04.3260431561E+00-6.928101685E+01+
*       -2.500000000E+00               0
GRID*               2705               03.9741155743E+00-6.808221128E+01+
*       -2.500000000E+00               0
GRID*               2706               03.8070497657E+00-6.676706248E+01+
*       -2.500000000E+00               0
GRID*               2707               0-3.976152843E+00-7.142727620E+01+
*       -2.500000000E+00               0
GRID*               2708               0-4.326735685E+00-7.264234793E+01+
*       -2.500000000E+00               0
GRID*               2709               0-3.975735719E+00-7.384182828E+01+
*       -2.500000000E+00               0
GRID*               2710               0-3.804498985E+00-7.515925337E+01+
*       -2.500000000E+00               0
GRID*               2711               08.3713373750E-01-7.160210218E+01+
*       -2.500000000E+00               0
GRID*               2712               01.1737672078E+00-6.936656730E+01+
*       -2.500000000E+00               0
GRID*               2713               02.5718333919E+00-6.779027133E+01+
*       -2.500000000E+00               0
GRID*               2714               03.1223510487E+00-6.932153171E+01+
*       -2.500000000E+00               0
GRID*               2715               02.5794170943E+00-7.090501048E+01+
*       -2.500000000E+00               0
GRID*               2716               0-1.184641235E+00-7.260920999E+01+
*       -2.500000000E+00               0
GRID*               2717               0-8.480421369E-01-7.040017193E+01+
*       -2.500000000E+00               0
GRID*               2718               0-2.575746718E+00-7.415158888E+01+
*       -2.500000000E+00               0
GRID*               2719               0-3.124752145E+00-7.262616080E+01+
*       -2.500000000E+00               0
GRID*               2720               0-2.581527555E+00-7.108503939E+01+
*       -2.500000000E+00               0
GRID*               2721               0-2.516204300E+00-7.745253301E+01+
*       -2.500000000E+00               0
GRID*               2722               0-2.836286681E+00-7.880717709E+01+
*       -2.500000000E+00               0
GRID*               2723               0-2.518375538E+00-8.016197918E+01+
*       -2.500000000E+00               0
GRID*               2724               0-2.366545060E+00-8.181712065E+01+
*       -2.500000000E+00               0
GRID*               2725               0-2.309403238E+00-8.349515962E+01+
*       -2.500000000E+00               0
GRID*               2726               0-3.750395438E+00-8.270751225E+01+
*       -2.500000000E+00               0
GRID*               2727               0-3.858862782E+00-8.433696561E+01+
*       -2.500000000E+00               0
GRID*               2728               0-3.881478688E+00-7.953492237E+01+
*       -2.500000000E+00               0
GRID*               2729               0-3.989519081E+00-7.803628542E+01+
*       -2.500000000E+00               0
GRID*               2730               0-3.917045504E+00-8.109641259E+01+
*       -2.500000000E+00               0
GRID*               2731               0-9.000345972E-01-8.081843383E+01+
*       -2.500000000E+00               0
GRID*               2732               06.9079214619E-01-7.981949061E+01+
*       -2.500000000E+00               0
GRID*               2733               02.3225084964E+00-7.896539616E+01+
*       -2.500000000E+00               0
GRID*               2734               03.7839716912E+00-7.821781186E+01+
*       -2.500000000E+00               0
GRID*               2735               0-8.044235309E-01-8.258282217E+01+
*       -2.500000000E+00               0
GRID*               2736               03.8608812739E+00-7.987372792E+01+
*       -2.500000000E+00               0
GRID*               2737               02.2774116110E+00-8.071371688E+01+
*       -2.500000000E+00               0
GRID*               2738               07.2668867285E-01-8.163116330E+01+
*       -2.500000000E+00               0
GRID*               2739               0-8.489826355E-01-7.676709690E+01+
*       -2.500000000E+00               0
GRID*               2740               0-1.162435349E+00-7.882097674E+01+
*       -2.500000000E+00               0
GRID*               2741               01.1002295289E+00-7.580992437E+01+
*       -2.500000000E+00               0
GRID*               2742               07.7122460487E-01-7.791035861E+01+
*       -2.500000000E+00               0
GRID*               2743               02.5143852687E+00-7.442829487E+01+
*       -2.500000000E+00               0
GRID*               2744               02.8230822349E+00-7.584838909E+01+
*       -2.500000000E+00               0
GRID*               2745               02.4793914969E+00-7.724363316E+01+
*       -2.500000000E+00               0
GRID*               2746               03.8811959323E+00-7.511131248E+01+
*       -2.500000000E+00               0
GRID*               2747               03.9807427438E+00-7.664253601E+01+
*       -2.500000000E+00               0
GRID*               2748               03.9366539110E+00-7.351760469E+01+
*       -2.500000000E+00               0
GRID*               2749               03.8651251826E+00-5.388258955E+01+
*       -2.500000000E+00               0
GRID*               2750               02.4157168961E+00-5.459583169E+01+
*       -2.500000000E+00               0
GRID*               2751               08.1139979359E-01-5.547566000E+01+
*       -2.500000000E+00               0
GRID*               2752               0-8.182177301E-01-5.642538291E+01+
*       -2.500000000E+00               0
GRID*               2753               0-2.359239708E+00-5.743567162E+01+
*       -2.500000000E+00               0
GRID*               2754               0-3.747645385E+00-5.832551115E+01+
*       -2.500000000E+00               0
GRID*               2755               03.8718429707E+00-5.170295949E+01+
*       -2.500000000E+00               0
GRID*               2756               02.4640657604E+00-5.093540826E+01+
*       -2.500000000E+00               0
GRID*               2757               08.6034965070E-01-4.995735332E+01+
*       -2.500000000E+00               0
GRID*               2758               0-8.147414292E-01-4.903476879E+01+
*       -2.500000000E+00               0
GRID*               2759               08.4461398815E-01-4.805192731E+01+
*       -2.500000000E+00               0
GRID*               2760               02.3937313606E+00-4.701213768E+01+
*       -2.500000000E+00               0
GRID*               2761               02.6510627674E+00-4.900326410E+01+
*       -2.500000000E+00               0
GRID*               2762               03.8888417760E+00-4.599330348E+01+
*       -2.500000000E+00               0
GRID*               2763               03.8758871079E+00-4.766941878E+01+
*       -2.500000000E+00               0
GRID*               2764               04.2363716755E+00-4.904326891E+01+
*       -2.500000000E+00               0
GRID*               2765               03.8906809326E+00-5.035140444E+01+
*       -2.500000000E+00               0
GRID*               2766               0-8.220355556E-01-5.459314890E+01+
*       -2.500000000E+00               0
GRID*               2767               0-7.867660062E-01-5.278249615E+01+
*       -2.500000000E+00               0
GRID*               2768               0-8.115016966E-01-5.095034536E+01+
*       -2.500000000E+00               0
GRID*               2769               08.6482996851E-01-5.184491355E+01+
*       -2.500000000E+00               0
GRID*               2770               02.6343244532E+00-5.277530879E+01+
*       -2.500000000E+00               0
GRID*               2771               04.1143071579E+00-5.278615645E+01+
*       -2.500000000E+00               0
GRID*               2772               08.5152805498E-01-5.368108926E+01+
*       -2.500000000E+00               0
GRID*               2773               0-2.374693279E+00-5.367744129E+01+
*       -2.500000000E+00               0
GRID*               2774               0-3.757757941E+00-5.290257451E+01+
*       -2.500000000E+00               0
GRID*               2775               0-4.223384987E+00-5.022274326E+01+
*       -2.500000000E+00               0
GRID*               2776               0-3.849393745E+00-5.151632383E+01+
*       -2.500000000E+00               0
GRID*               2777               0-2.372161525E+00-5.199748542E+01+
*       -2.500000000E+00               0
GRID*               2778               0-2.616732376E+00-5.009124966E+01+
*       -2.500000000E+00               0
GRID*               2779               0-2.610860919E+00-5.556484286E+01+
*       -2.500000000E+00               0
GRID*               2780               0-3.839986625E+00-5.691290193E+01+
*       -2.500000000E+00               0
GRID*               2781               0-4.216219545E+00-5.561280480E+01+
*       -2.500000000E+00               0
GRID*               2782               0-3.843521663E+00-5.429545131E+01+
*       -2.500000000E+00               0
GRID*               2783               03.8618733456E+00-5.699733470E+01+
*       -2.500000000E+00               0
GRID*               2784               02.6276120325E+00-5.809685983E+01+
*       -2.500000000E+00               0
GRID*               2785               08.8544415655E-01-5.904074464E+01+
*       -2.500000000E+00               0
GRID*               2786               0-7.378903769E-01-5.998054340E+01+
*       -2.500000000E+00               0
GRID*               2787               0-2.372502600E+00-6.084123925E+01+
*       -2.500000000E+00               0
GRID*               2788               0-3.858748632E+00-6.150539580E+01+
*       -2.500000000E+00               0
GRID*               2789               08.5838894460E-01-5.725815911E+01+
*       -2.500000000E+00               0
GRID*               2790               02.4210508103E+00-5.630840446E+01+
*       -2.500000000E+00               0
GRID*               2791               03.9262744596E+00-5.544235319E+01+
*       -2.500000000E+00               0
GRID*               2792               0-7.498933402E-01-5.821006659E+01+
*       -2.500000000E+00               0
GRID*               2793               0-2.311765007E+00-5.911800964E+01+
*       -2.500000000E+00               0
GRID*               2794               0-3.885439555E+00-5.992637945E+01+
*       -2.500000000E+00               0
GRID*               2795               03.8569305663E+00-5.913344236E+01+
*       -2.500000000E+00               0
GRID*               2796               02.4654173604E+00-5.982826200E+01+
*       -2.500000000E+00               0
GRID*               2797               09.4770144790E-01-6.082891215E+01+
*       -2.500000000E+00               0
GRID*               2798               0-7.513409736E-01-6.185274481E+01+
*       -2.500000000E+00               0
GRID*               2799               0-2.651589579E+00-6.271101358E+01+
*       -2.500000000E+00               0
GRID*               2800               0-3.929075139E+00-6.370352525E+01+
*       -2.500000000E+00               0
GRID*               2801               0-4.128147235E+00-6.260623717E+01+
*       -2.500000000E+00               0
GRID*               2802               04.1100349870E+00-5.808289932E+01+
*       -2.500000000E+00               0
GRID*               2803               03.9738881368E+00-6.410505977E+01+
*       -2.500000000E+00               0
GRID*               2804               04.3276977325E+00-6.289107494E+01+
*       -2.500000000E+00               0
GRID*               2805               03.9856398088E+00-6.170219976E+01+
*       -2.500000000E+00               0
GRID*               2806               03.8331781774E+00-6.041689902E+01+
*       -2.500000000E+00               0
GRID*               2807               02.5775065127E+00-6.445035377E+01+
*       -2.500000000E+00               0
GRID*               2808               03.1354697740E+00-6.291544073E+01+
*       -2.500000000E+00               0
GRID*               2809               02.6169653721E+00-6.142038105E+01+
*       -2.500000000E+00               0
GRID*               2810               08.3653239075E-01-6.512137549E+01+
*       -2.500000000E+00               0
GRID*               2811               01.2160893797E+00-6.292262799E+01+
*       -2.500000000E+00               0
GRID*               2812               0-4.016734845E+00-6.501992104E+01+
*       -2.500000000E+00               0
GRID*               2813               0-4.339461110E+00-6.624953299E+01+
*       -2.500000000E+00               0
GRID*               2814               0-3.985445277E+00-6.744869069E+01+
*       -2.500000000E+00               0
GRID*               2815               0-3.814743045E+00-6.876470203E+01+
*       -2.500000000E+00               0
GRID*               2816               0-1.205116322E+00-6.615437031E+01+
*       -2.500000000E+00               0
GRID*               2817               0-8.724502686E-01-6.388909550E+01+
*       -2.500000000E+00               0
GRID*               2818               0-2.591933835E+00-6.773995961E+01+
*       -2.500000000E+00               0
GRID*               2819               0-3.154804303E+00-6.620489185E+01+
*       -2.500000000E+00               0
GRID*               2820               0-2.657519252E+00-6.460871680E+01+
*       -2.500000000E+00               0
GRID*               2821               0-4.090018955E+001.7799437745E+01+
*       -2.500000000E+00               0
GRID*               2822               0-2.805707974E+001.7256391419E+01+
*       -2.500000000E+00               0
GRID*               2823               0-3.946412213E+001.6572406162E+01+
*       -2.500000000E+00               0
GRID*               2824               01.2895309669E+001.6564096942E+01+
*       2.5000000000E+00               0
GRID*               2825               02.6380412965E+001.5756015177E+01+
*       2.5000000000E+00               0
GRID*               2826               04.0011611799E+001.5035020110E+01+
*       2.5000000000E+00               0
GRID*               2827               04.0816317188E+001.7798226092E+01+
*       2.5000000000E+00               0
GRID*               2828               02.7828107840E+001.7254679955E+01+
*       2.5000000000E+00               0
GRID*               2829               03.9244768750E+001.6561247498E+01+
*       2.5000000000E+00               0
GRID*               2830               0-1.181391129E+00-1.170860687E+02+
*       2.5000000000E+00               0
GRID*               2831               0-2.101127158E+00-1.164969741E+02+
*       2.5000000000E+00               0
GRID*               2832               0-3.129302649E+00-1.158532655E+02+
*       2.5000000000E+00               0
GRID*               2833               0-4.136702713E+00-1.153766202E+02+
*       2.5000000000E+00               0
GRID*               2834               0-3.207918281E+00-1.171824424E+02+
*       2.5000000000E+00               0
GRID*               2835               0-4.104716625E+00-1.165823038E+02+
*       2.5000000000E+00               0
GRID*               2836               0-4.140322959E+00-1.177430820E+02+
*       2.5000000000E+00               0
GRID*               2837               0-4.225248303E+001.6797618410E+01+
*       2.5000000000E+00               0
GRID*               2838               0-3.333069491E+001.7331337043E+01+
*       2.5000000000E+00               0
GRID*               2839               0-4.180680458E+001.7841748076E+01+
*       2.5000000000E+00               0
GRID*               2840               04.0781183000E+00-1.156986431E+02+
*       2.5000000000E+00               0
GRID*               2841               03.1835154184E+00-1.163046888E+02+
*       2.5000000000E+00               0
GRID*               2842               02.2547641730E+00-1.169510226E+02+
*       2.5000000000E+00               0
GRID*               2843               03.2427073074E+00-1.173622231E+02+
*       2.5000000000E+00               0
GRID*               2844               04.1449426204E+00-1.177929413E+02+
*       2.5000000000E+00               0
GRID*               2845               04.1081976327E+00-1.167406229E+02+
*       2.5000000000E+00               0
GRID*               2846               03.7873226628E+00-5.511423729E+01+
*       2.5000000000E+00               0
GRID*               2847               02.3403414522E+00-5.432239101E+01+
*       2.5000000000E+00               0
GRID*               2848               07.2404361057E-01-5.342936175E+01+
*       2.5000000000E+00               0
GRID*               2849               0-8.705154168E-01-5.239018574E+01+
*       2.5000000000E+00               0
GRID*               2850               0-2.359957716E+00-5.136985964E+01+
*       2.5000000000E+00               0
GRID*               2851               0-3.756477574E+00-5.048013366E+01+
*       2.5000000000E+00               0
GRID*               2852               03.8794954939E+00-8.482835037E+01+
*       2.5000000000E+00               0
GRID*               2853               02.4625162513E+00-8.554841993E+01+
*       2.5000000000E+00               0
GRID*               2854               08.4927928803E-01-8.654170604E+01+
*       2.5000000000E+00               0
GRID*               2855               0-8.031937865E-01-8.753015083E+01+
*       2.5000000000E+00               0
GRID*               2856               0-2.412410852E+00-8.847391522E+01+
*       2.5000000000E+00               0
GRID*               2857               0-3.865244614E+00-8.925351877E+01+
*       2.5000000000E+00               0
GRID*               2858               03.9954488447E+00-1.018108672E+02+
*       2.5000000000E+00               0
GRID*               2859               02.7275407990E+00-1.027811621E+02+
*       2.5000000000E+00               0
GRID*               2860               09.1857185999E-01-1.036394560E+02+
*       2.5000000000E+00               0
GRID*               2861               0-7.530757265E-01-1.045138408E+02+
*       2.5000000000E+00               0
GRID*               2862               0-2.398941198E+00-1.053807029E+02+
*       2.5000000000E+00               0
GRID*               2863               0-3.875352296E+00-1.061078775E+02+
*       2.5000000000E+00               0
GRID*               2864               0-8.181734795E-01-1.063809428E+02+
*       2.5000000000E+00               0
GRID*               2865               08.9290451579E-01-1.073488156E+02+
*       2.5000000000E+00               0
GRID*               2866               02.7435930703E+00-1.082600922E+02+
*       2.5000000000E+00               0
GRID*               2867               04.0253786716E+00-1.092498536E+02+
*       2.5000000000E+00               0
GRID*               2868               08.6595687242E-01-1.054813481E+02+
*       2.5000000000E+00               0
GRID*               2869               02.4762223435E+00-1.063843074E+02+
*       2.5000000000E+00               0
GRID*               2870               02.4780791786E+00-1.046304718E+02+
*       2.5000000000E+00               0
GRID*               2871               03.9094323223E+00-1.070977298E+02+
*       2.5000000000E+00               0
GRID*               2872               04.1756376999E+00-1.081934882E+02+
*       2.5000000000E+00               0
GRID*               2873               03.9056842325E+00-1.039482707E+02+
*       2.5000000000E+00               0
GRID*               2874               04.1659871097E+00-1.028602569E+02+
*       2.5000000000E+00               0
GRID*               2875               03.9562694716E+00-1.055217972E+02+
*       2.5000000000E+00               0
GRID*               2876               0-3.775905793E+00-1.128324295E+02+
*       2.5000000000E+00               0
GRID*               2877               0-2.583266644E+00-1.114243466E+02+
*       2.5000000000E+00               0
GRID*               2878               0-8.006486912E-01-1.103215304E+02+
*       2.5000000000E+00               0
GRID*               2879               09.6764017750E-01-1.093013778E+02+
*       2.5000000000E+00               0
GRID*               2880               0-3.986581958E+00-1.082674164E+02+
*       2.5000000000E+00               0
GRID*               2881               0-2.679771147E+00-1.072793819E+02+
*       2.5000000000E+00               0
GRID*               2882               0-4.150983559E+00-1.072127457E+02+
*       2.5000000000E+00               0
GRID*               2883               0-8.547286887E-01-1.083238540E+02+
*       2.5000000000E+00               0
GRID*               2884               0-2.715068049E+00-1.093247419E+02+
*       2.5000000000E+00               0
GRID*               2885               0-3.966970612E+00-1.103672055E+02+
*       2.5000000000E+00               0
GRID*               2886               0-4.105328404E+00-1.114683281E+02+
*       2.5000000000E+00               0
GRID*               2887               0-4.178508366E+00-1.093118853E+02+
*       2.5000000000E+00               0
GRID*               2888               01.0140236813E+00-1.112822644E+02+
*       2.5000000000E+00               0
GRID*               2889               02.7898534146E+00-1.123030863E+02+
*       2.5000000000E+00               0
GRID*               2890               03.9493277386E+00-1.134181611E+02+
*       2.5000000000E+00               0
GRID*               2891               02.8202652792E+00-1.102881457E+02+
*       2.5000000000E+00               0
GRID*               2892               04.0367609636E+00-1.113275227E+02+
*       2.5000000000E+00               0
GRID*               2893               04.2169946986E+00-1.102904825E+02+
*       2.5000000000E+00               0
GRID*               2894               04.1943947089E+00-1.123740615E+02+
*       2.5000000000E+00               0
GRID*               2895               0-1.969689582E+00-1.150284969E+02+
*       2.5000000000E+00               0
GRID*               2896               0-5.766593760E-01-1.141165359E+02+
*       2.5000000000E+00               0
GRID*               2897               01.0046905545E+00-1.131981045E+02+
*       2.5000000000E+00               0
GRID*               2898               0-3.246249711E+00-1.144550015E+02+
*       2.5000000000E+00               0
GRID*               2899               0-4.345775606E+00-1.141433531E+02+
*       2.5000000000E+00               0
GRID*               2900               0-6.747834865E-01-1.122919348E+02+
*       2.5000000000E+00               0
GRID*               2901               0-2.140251646E+00-1.133735500E+02+
*       2.5000000000E+00               0
GRID*               2902               09.4963177069E-01-1.165442081E+02+
*       2.5000000000E+00               0
GRID*               2903               0-5.988495083E-01-1.158750987E+02+
*       2.5000000000E+00               0
GRID*               2904               0-1.723822836E-01-1.169665521E+02+
*       2.5000000000E+00               0
GRID*               2905               09.2219354789E-01-1.149530364E+02+
*       2.5000000000E+00               0
GRID*               2906               02.5788063622E+00-1.142263255E+02+
*       2.5000000000E+00               0
GRID*               2907               03.9888444257E+00-1.146296842E+02+
*       2.5000000000E+00               0
GRID*               2908               03.2203495556E+00-1.153398533E+02+
*       2.5000000000E+00               0
GRID*               2909               02.1913679437E+00-1.157343282E+02+
*       2.5000000000E+00               0
GRID*               2910               03.8786267954E+00-9.434154516E+01+
*       2.5000000000E+00               0
GRID*               2911               02.6435585288E+00-9.536573662E+01+
*       2.5000000000E+00               0
GRID*               2912               08.6251379039E-01-9.622119225E+01+
*       2.5000000000E+00               0
GRID*               2913               0-7.889540725E-01-9.711499836E+01+
*       2.5000000000E+00               0
GRID*               2914               0-2.399507269E+00-9.800524353E+01+
*       2.5000000000E+00               0
GRID*               2915               0-3.856589110E+00-9.874261836E+01+
*       2.5000000000E+00               0
GRID*               2916               0-2.349760175E+00-1.035637194E+02+
*       2.5000000000E+00               0
GRID*               2917               0-2.372155821E+00-1.017485844E+02+
*       2.5000000000E+00               0
GRID*               2918               0-2.592385105E+00-9.986994437E+01+
*       2.5000000000E+00               0
GRID*               2919               0-3.849306925E+00-1.009743198E+02+
*       2.5000000000E+00               0
GRID*               2920               0-4.101394420E+00-9.985408387E+01+
*       2.5000000000E+00               0
GRID*               2921               0-3.919327946E+00-1.044873701E+02+
*       2.5000000000E+00               0
GRID*               2922               0-3.912197291E+00-1.025914477E+02+
*       2.5000000000E+00               0
GRID*               2923               0-7.309331079E-01-1.026756840E+02+
*       2.5000000000E+00               0
GRID*               2924               0-7.720215807E-01-1.008183938E+02+
*       2.5000000000E+00               0
GRID*               2925               0-8.001087907E-01-9.895441095E+01+
*       2.5000000000E+00               0
GRID*               2926               02.7239062719E+00-1.008000982E+02+
*       2.5000000000E+00               0
GRID*               2927               08.9842107858E-01-9.988620686E+01+
*       2.5000000000E+00               0
GRID*               2928               09.5758725087E-01-1.017673152E+02+
*       2.5000000000E+00               0
GRID*               2929               08.4729432364E-01-9.805455840E+01+
*       2.5000000000E+00               0
GRID*               2930               02.4624106478E+00-9.894923327E+01+
*       2.5000000000E+00               0
GRID*               2931               02.4430291993E+00-9.720809941E+01+
*       2.5000000000E+00               0
GRID*               2932               03.8773810530E+00-9.653155664E+01+
*       2.5000000000E+00               0
GRID*               2933               04.1197815659E+00-9.543626924E+01+
*       2.5000000000E+00               0
GRID*               2934               03.9003245980E+00-9.967110925E+01+
*       2.5000000000E+00               0
GRID*               2935               04.1640297232E+00-1.007647945E+02+
*       2.5000000000E+00               0
GRID*               2936               03.9435526141E+00-9.810307780E+01+
*       2.5000000000E+00               0
GRID*               2937               08.6420527880E-01-9.434043716E+01+
*       2.5000000000E+00               0
GRID*               2938               0-8.354927054E-01-9.330364573E+01+
*       2.5000000000E+00               0
GRID*               2939               0-2.454769240E+00-9.225135258E+01+
*       2.5000000000E+00               0
GRID*               2940               0-3.870256948E+00-9.145738113E+01+
*       2.5000000000E+00               0
GRID*               2941               0-8.217290398E-01-9.523677092E+01+
*       2.5000000000E+00               0
GRID*               2942               0-2.646803482E+00-9.420306590E+01+
*       2.5000000000E+00               0
GRID*               2943               0-2.412489777E+00-9.621142783E+01+
*       2.5000000000E+00               0
GRID*               2944               0-3.889252339E+00-9.281676051E+01+
*       2.5000000000E+00               0
GRID*               2945               0-4.237807312E+00-9.411489960E+01+
*       2.5000000000E+00               0
GRID*               2946               0-3.884452053E+00-9.549472777E+01+
*       2.5000000000E+00               0
GRID*               2947               0-3.924253358E+00-9.715801292E+01+
*       2.5000000000E+00               0
GRID*               2948               08.6605216549E-01-9.242957164E+01+
*       2.5000000000E+00               0
GRID*               2949               08.6688846976E-01-9.047768023E+01+
*       2.5000000000E+00               0
GRID*               2950               08.6968419445E-01-8.851563289E+01+
*       2.5000000000E+00               0
GRID*               2951               0-8.210528184E-01-8.945787687E+01+
*       2.5000000000E+00               0
GRID*               2952               0-2.623912708E+00-9.037881221E+01+
*       2.5000000000E+00               0
GRID*               2953               0-4.112618603E+00-9.037315207E+01+
*       2.5000000000E+00               0
GRID*               2954               0-8.329095828E-01-9.138544223E+01+
*       2.5000000000E+00               0
GRID*               2955               03.8979127583E+00-9.032808393E+01+
*       2.5000000000E+00               0
GRID*               2956               02.4809375077E+00-8.955001802E+01+
*       2.5000000000E+00               0
GRID*               2957               04.2447715782E+00-9.169537354E+01+
*       2.5000000000E+00               0
GRID*               2958               03.8992629804E+00-9.298572854E+01+
*       2.5000000000E+00               0
GRID*               2959               02.4770748210E+00-9.351316646E+01+
*       2.5000000000E+00               0
GRID*               2960               02.6758318968E+00-9.157260793E+01+
*       2.5000000000E+00               0
GRID*               2961               02.6698616920E+00-8.753728470E+01+
*       2.5000000000E+00               0
GRID*               2962               03.9001310147E+00-8.887288825E+01+
*       2.5000000000E+00               0
GRID*               2963               04.2439331823E+00-8.752988657E+01+
*       2.5000000000E+00               0
GRID*               2964               03.8955632778E+00-8.620514072E+01+
*       2.5000000000E+00               0
GRID*               2965               0-4.026269327E+00-6.519756175E+01+
*       2.5000000000E+00               0
GRID*               2966               0-2.698680596E+00-6.586470654E+01+
*       2.5000000000E+00               0
GRID*               2967               0-9.126256814E-01-6.684696879E+01+
*       2.5000000000E+00               0
GRID*               2968               09.9870209167E-01-6.803508526E+01+
*       2.5000000000E+00               0
GRID*               2969               02.6348823294E+00-6.907275960E+01+
*       2.5000000000E+00               0
GRID*               2970               03.8948486862E+00-6.987332600E+01+
*       2.5000000000E+00               0
GRID*               2971               03.7852106954E+00-5.942047370E+01+
*       2.5000000000E+00               0
GRID*               2972               02.4284037337E+00-6.025662918E+01+
*       2.5000000000E+00               0
GRID*               2973               08.3530623152E-01-6.123756590E+01+
*       2.5000000000E+00               0
GRID*               2974               0-9.572082352E-01-6.217113961E+01+
*       2.5000000000E+00               0
GRID*               2975               0-2.689752050E+00-6.286003937E+01+
*       2.5000000000E+00               0
GRID*               2976               0-4.253803365E+00-6.418974950E+01+
*       2.5000000000E+00               0
GRID*               2977               01.1495484937E+00-6.562892575E+01+
*       2.5000000000E+00               0
GRID*               2978               08.5137403973E-01-6.327531587E+01+
*       2.5000000000E+00               0
GRID*               2979               0-3.182639973E+00-6.428917687E+01+
*       2.5000000000E+00               0
GRID*               2980               0-1.211229035E+00-6.441231235E+01+
*       2.5000000000E+00               0
GRID*               2981               02.8661278399E+00-6.717701942E+01+
*       2.5000000000E+00               0
GRID*               2982               02.9472891268E+00-6.551688785E+01+
*       2.5000000000E+00               0
GRID*               2983               02.5999779046E+00-6.411811925E+01+
*       2.5000000000E+00               0
GRID*               2984               02.6807099994E+00-6.216115177E+01+
*       2.5000000000E+00               0
GRID*               2985               03.9229385248E+00-6.474501420E+01+
*       2.5000000000E+00               0
GRID*               2986               03.9255898840E+00-6.340234405E+01+
*       2.5000000000E+00               0
GRID*               2987               04.2458232946E+00-6.207082514E+01+
*       2.5000000000E+00               0
GRID*               2988               03.8748544163E+00-6.078041245E+01+
*       2.5000000000E+00               0
GRID*               2989               03.9644261713E+00-6.856551300E+01+
*       2.5000000000E+00               0
GRID*               2990               04.3033304007E+00-6.730126111E+01+
*       2.5000000000E+00               0
GRID*               2991               04.0190608165E+00-6.602642677E+01+
*       2.5000000000E+00               0
GRID*               2992               0-1.157041492E+00-5.440487920E+01+
*       2.5000000000E+00               0
GRID*               2993               0-8.331859731E-01-5.645390662E+01+
*       2.5000000000E+00               0
GRID*               2994               0-7.598247919E-01-5.835494621E+01+
*       2.5000000000E+00               0
GRID*               2995               0-8.528707527E-01-6.023089772E+01+
*       2.5000000000E+00               0
GRID*               2996               02.4822579521E+00-5.601518460E+01+
*       2.5000000000E+00               0
GRID*               2997               02.8127645671E+00-5.736833972E+01+
*       2.5000000000E+00               0
GRID*               2998               02.4985436444E+00-5.865687935E+01+
*       2.5000000000E+00               0
GRID*               2999               03.9761564629E+00-5.667717061E+01+
*       2.5000000000E+00               0
GRID*               3000               03.8523015093E+00-5.812480911E+01+
*       2.5000000000E+00               0
GRID*               3001               07.8860707353E-01-5.532903526E+01+
*       2.5000000000E+00               0
GRID*               3002               08.8260789525E-01-5.935418862E+01+
*       2.5000000000E+00               0
GRID*               3003               01.1240312213E+00-5.736315048E+01+
*       2.5000000000E+00               0
GRID*               3004               0-2.419743584E+00-5.922193025E+01+
*       2.5000000000E+00               0
GRID*               3005               0-3.881374116E+00-5.989992986E+01+
*       2.5000000000E+00               0
GRID*               3006               0-2.699998841E+00-6.105656582E+01+
*       2.5000000000E+00               0
GRID*               3007               0-3.949669642E+00-6.203787648E+01+
*       2.5000000000E+00               0
GRID*               3008               0-4.026892549E+00-6.324684017E+01+
*       2.5000000000E+00               0
GRID*               3009               0-4.145815843E+00-6.098315666E+01+
*       2.5000000000E+00               0
GRID*               3010               0-2.522590327E+00-5.304653305E+01+
*       2.5000000000E+00               0
GRID*               3011               0-2.849496910E+00-5.440592742E+01+
*       2.5000000000E+00               0
GRID*               3012               0-2.522022559E+00-5.577592769E+01+
*       2.5000000000E+00               0
GRID*               3013               0-2.383468089E+00-5.747196055E+01+
*       2.5000000000E+00               0
GRID*               3014               0-3.810632478E+00-5.670354976E+01+
*       2.5000000000E+00               0
GRID*               3015               0-3.915562019E+00-5.832822765E+01+
*       2.5000000000E+00               0
GRID*               3016               0-3.887188267E+00-5.365474903E+01+
*       2.5000000000E+00               0
GRID*               3017               0-3.918157447E+00-5.209244197E+01+
*       2.5000000000E+00               0
GRID*               3018               0-3.995671862E+00-5.515175852E+01+
*       2.5000000000E+00               0
GRID*               3019               03.8823773432E+00-7.643155262E+01+
*       2.5000000000E+00               0
GRID*               3020               02.4745099378E+00-7.718371995E+01+
*       2.5000000000E+00               0
GRID*               3021               09.1614851415E-01-7.816916210E+01+
*       2.5000000000E+00               0
GRID*               3022               0-7.691227422E-01-7.922833498E+01+
*       2.5000000000E+00               0
GRID*               3023               0-2.409671221E+00-8.022588680E+01+
*       2.5000000000E+00               0
GRID*               3024               0-3.809158188E+00-8.102837439E+01+
*       2.5000000000E+00               0
GRID*               3025               0-2.418950300E+00-8.662117951E+01+
*       2.5000000000E+00               0
GRID*               3026               0-2.530798083E+00-8.480555847E+01+
*       2.5000000000E+00               0
GRID*               3027               0-2.841528444E+00-8.337051114E+01+
*       2.5000000000E+00               0
GRID*               3028               0-2.518939499E+00-8.197174329E+01+
*       2.5000000000E+00               0
GRID*               3029               0-3.951766239E+00-8.572208219E+01+
*       2.5000000000E+00               0
GRID*               3030               0-3.934788661E+00-8.762789963E+01+
*       2.5000000000E+00               0
GRID*               3031               0-3.891526154E+00-8.409723195E+01+
*       2.5000000000E+00               0
GRID*               3032               0-3.994327665E+00-8.257090825E+01+
*       2.5000000000E+00               0
GRID*               3033               0-8.751637648E-01-8.559108753E+01+
*       2.5000000000E+00               0
GRID*               3034               0-1.127015636E+00-8.343957874E+01+
*       2.5000000000E+00               0
GRID*               3035               0-8.066920468E-01-8.127746316E+01+
*       2.5000000000E+00               0
GRID*               3036               08.1420878882E-01-8.455438800E+01+
*       2.5000000000E+00               0
GRID*               3037               08.8707150986E-01-8.250602988E+01+
*       2.5000000000E+00               0
GRID*               3038               01.1750738256E+00-8.031786507E+01+
*       2.5000000000E+00               0
GRID*               3039               03.9208721091E+00-8.263014037E+01+
*       2.5000000000E+00               0
GRID*               3040               02.6715774619E+00-8.365638849E+01+
*       2.5000000000E+00               0
GRID*               3041               04.1330603907E+00-8.374944841E+01+
*       2.5000000000E+00               0
GRID*               3042               02.6107083463E+00-8.176802521E+01+
*       2.5000000000E+00               0
GRID*               3043               02.8842638245E+00-8.034282753E+01+
*       2.5000000000E+00               0
GRID*               3044               02.5690176131E+00-7.892873886E+01+
*       2.5000000000E+00               0
GRID*               3045               03.9113997791E+00-7.959107009E+01+
*       2.5000000000E+00               0
GRID*               3046               03.9650292414E+00-7.800816011E+01+
*       2.5000000000E+00               0
GRID*               3047               04.0340567754E+00-8.111382718E+01+
*       2.5000000000E+00               0
GRID*               3048               0-4.032448915E+00-6.919271250E+01+
*       2.5000000000E+00               0
GRID*               3049               0-2.766777961E+00-7.026202178E+01+
*       2.5000000000E+00               0
GRID*               3050               0-8.568744955E-01-7.132587237E+01+
*       2.5000000000E+00               0
GRID*               3051               08.9215685054E-01-7.243357153E+01+
*       2.5000000000E+00               0
GRID*               3052               02.4675631873E+00-7.344208856E+01+
*       2.5000000000E+00               0
GRID*               3053               03.8830565824E+00-7.420134439E+01+
*       2.5000000000E+00               0
GRID*               3054               0-4.301951683E+00-6.783966415E+01+
*       2.5000000000E+00               0
GRID*               3055               0-3.990472183E+00-6.652562853E+01+
*       2.5000000000E+00               0
GRID*               3056               0-2.794209139E+00-6.794100581E+01+
*       2.5000000000E+00               0
GRID*               3057               0-8.642524279E-01-6.911976388E+01+
*       2.5000000000E+00               0
GRID*               3058               02.5502439172E+00-7.174663390E+01+
*       2.5000000000E+00               0
GRID*               3059               02.8649742901E+00-7.043103569E+01+
*       2.5000000000E+00               0
GRID*               3060               01.1732576308E+00-7.031197838E+01+
*       2.5000000000E+00               0
GRID*               3061               03.8842503545E+00-7.112393427E+01+
*       2.5000000000E+00               0
GRID*               3062               03.9576911734E+00-7.264203283E+01+
*       2.5000000000E+00               0
GRID*               3063               0-8.323721282E-01-7.335505811E+01+
*       2.5000000000E+00               0
GRID*               3064               0-7.898938041E-01-7.527240096E+01+
*       2.5000000000E+00               0
GRID*               3065               0-7.977217182E-01-7.721214917E+01+
*       2.5000000000E+00               0
GRID*               3066               08.8672558595E-01-7.624982825E+01+
*       2.5000000000E+00               0
GRID*               3067               02.6547662605E+00-7.530933241E+01+
*       2.5000000000E+00               0
GRID*               3068               04.1223458003E+00-7.531533508E+01+
*       2.5000000000E+00               0
GRID*               3069               08.8014643010E-01-7.434257027E+01+
*       2.5000000000E+00               0
GRID*               3070               0-3.888203823E+00-7.359711097E+01+
*       2.5000000000E+00               0
GRID*               3071               0-2.429898482E+00-7.433867734E+01+
*       2.5000000000E+00               0
GRID*               3072               0-2.699803037E+00-7.240568206E+01+
*       2.5000000000E+00               0
GRID*               3073               0-4.008024258E+00-7.141241759E+01+
*       2.5000000000E+00               0
GRID*               3074               0-4.160917962E+00-7.248969514E+01+
*       2.5000000000E+00               0
GRID*               3075               0-4.201616424E+00-7.034738439E+01+
*       2.5000000000E+00               0
GRID*               3076               0-2.412142086E+00-7.617672709E+01+
*       2.5000000000E+00               0
GRID*               3077               0-2.622760912E+00-7.822710587E+01+
*       2.5000000000E+00               0
GRID*               3078               0-3.933039015E+00-7.520293393E+01+
*       2.5000000000E+00               0
GRID*               3079               0-3.881834469E+00-7.688362688E+01+
*       2.5000000000E+00               0
GRID*               3080               0-4.230210796E+00-7.826751703E+01+
*       2.5000000000E+00               0
GRID*               3081               0-3.864760517E+00-7.959687327E+01+
*       2.5000000000E+00               0
GRID*               3082               03.8557325760E+00-1.758939227E+01+
*       2.5000000000E+00               0
GRID*               3083               02.4438972916E+00-1.824568861E+01+
*       2.5000000000E+00               0
GRID*               3084               09.0767258751E-01-1.927070209E+01+
*       2.5000000000E+00               0
GRID*               3085               0-7.387486857E-01-2.037144018E+01+
*       2.5000000000E+00               0
GRID*               3086               0-2.390055115E+00-2.130151965E+01+
*       2.5000000000E+00               0
GRID*               3087               0-3.822694201E+00-2.208256516E+01+
*       2.5000000000E+00               0
GRID*               3088               03.7443240599E+00-3.699834077E+01+
*       2.5000000000E+00               0
GRID*               3089               02.3459334269E+00-3.788190134E+01+
*       2.5000000000E+00               0
GRID*               3090               07.6339466859E-01-3.889567190E+01+
*       2.5000000000E+00               0
GRID*               3091               0-9.542483598E-01-3.986887448E+01+
*       2.5000000000E+00               0
GRID*               3092               0-2.726265970E+00-4.088120815E+01+
*       2.5000000000E+00               0
GRID*               3093               0-3.898924597E+00-4.203697258E+01+
*       2.5000000000E+00               0
GRID*               3094               03.7117897598E+00-4.569866262E+01+
*       2.5000000000E+00               0
GRID*               3095               02.3385667425E+00-4.664174855E+01+
*       2.5000000000E+00               0
GRID*               3096               08.7136562616E-01-4.767783474E+01+
*       2.5000000000E+00               0
GRID*               3097               0-7.111322157E-01-4.872680622E+01+
*       2.5000000000E+00               0
GRID*               3098               0-2.308106391E+00-4.965723348E+01+
*       2.5000000000E+00               0
GRID*               3099               0-7.158020978E-01-5.055837020E+01+
*       2.5000000000E+00               0
GRID*               3100               08.6236376560E-01-5.158576383E+01+
*       2.5000000000E+00               0
GRID*               3101               01.1641320242E+00-4.960911846E+01+
*       2.5000000000E+00               0
GRID*               3102               02.3575310161E+00-5.259331348E+01+
*       2.5000000000E+00               0
GRID*               3103               02.5137234439E+00-5.092102778E+01+
*       2.5000000000E+00               0
GRID*               3104               02.8378807097E+00-4.956601038E+01+
*       2.5000000000E+00               0
GRID*               3105               02.5108966076E+00-4.824589718E+01+
*       2.5000000000E+00               0
GRID*               3106               03.7977923581E+00-5.184447548E+01+
*       2.5000000000E+00               0
GRID*               3107               03.8839141836E+00-5.348392949E+01+
*       2.5000000000E+00               0
GRID*               3108               03.8782540754E+00-4.879392615E+01+
*       2.5000000000E+00               0
GRID*               3109               03.9049517407E+00-4.724282305E+01+
*       2.5000000000E+00               0
GRID*               3110               03.9900466015E+00-5.028886995E+01+
*       2.5000000000E+00               0
GRID*               3111               0-2.371393946E+00-4.794364399E+01+
*       2.5000000000E+00               0
GRID*               3112               0-2.616598729E+00-4.615586792E+01+
*       2.5000000000E+00               0
GRID*               3113               0-2.435066663E+00-4.436418341E+01+
*       2.5000000000E+00               0
GRID*               3114               0-2.462371700E+00-4.267752578E+01+
*       2.5000000000E+00               0
GRID*               3115               0-3.850631533E+00-4.729915798E+01+
*       2.5000000000E+00               0
GRID*               3116               0-3.885026452E+00-4.885758210E+01+
*       2.5000000000E+00               0
GRID*               3117               0-3.868947885E+00-4.511908630E+01+
*       2.5000000000E+00               0
GRID*               3118               0-4.108358131E+00-4.621529725E+01+
*       2.5000000000E+00               0
GRID*               3119               0-3.940924906E+00-4.358050756E+01+
*       2.5000000000E+00               0
GRID*               3120               03.8365780213E+00-3.838162587E+01+
*       2.5000000000E+00               0
GRID*               3121               04.2164854643E+00-3.968084719E+01+
*       2.5000000000E+00               0
GRID*               3122               03.8555955064E+00-4.106096911E+01+
*       2.5000000000E+00               0
GRID*               3123               03.8707227407E+00-4.271756238E+01+
*       2.5000000000E+00               0
GRID*               3124               03.6992887025E+00-4.430274172E+01+
*       2.5000000000E+00               0
GRID*               3125               02.2593085841E+00-4.505452304E+01+
*       2.5000000000E+00               0
GRID*               3126               07.5630896674E-01-4.596334375E+01+
*       2.5000000000E+00               0
GRID*               3127               0-8.178672292E-01-4.694443528E+01+
*       2.5000000000E+00               0
GRID*               3128               0-8.682455594E-01-4.519125871E+01+
*       2.5000000000E+00               0
GRID*               3129               0-8.685453284E-01-4.346617357E+01+
*       2.5000000000E+00               0
GRID*               3130               0-9.167930233E-01-4.170938916E+01+
*       2.5000000000E+00               0
GRID*               3131               07.1878679028E-01-4.428191177E+01+
*       2.5000000000E+00               0
GRID*               3132               07.2372193844E-01-4.256929320E+01+
*       2.5000000000E+00               0
GRID*               3133               07.5499875878E-01-4.076270181E+01+
*       2.5000000000E+00               0
GRID*               3134               02.2727952041E+00-4.344617763E+01+
*       2.5000000000E+00               0
GRID*               3135               02.3449123366E+00-4.173011115E+01+
*       2.5000000000E+00               0
GRID*               3136               02.5868291092E+00-3.976846807E+01+
*       2.5000000000E+00               0
GRID*               3137               0-3.996089548E+00-3.050601173E+01+
*       2.5000000000E+00               0
GRID*               3138               0-2.726676444E+00-2.956228577E+01+
*       2.5000000000E+00               0
GRID*               3139               0-9.205447116E-01-2.869401726E+01+
*       2.5000000000E+00               0
GRID*               3140               07.8653049518E-01-2.777316697E+01+
*       2.5000000000E+00               0
GRID*               3141               02.4351923050E+00-2.684532075E+01+
*       2.5000000000E+00               0
GRID*               3142               03.8726459969E+00-2.617444182E+01+
*       2.5000000000E+00               0
GRID*               3143               03.9283832654E+00-2.400033423E+01+
*       2.5000000000E+00               0
GRID*               3144               02.6665815183E+00-2.496824106E+01+
*       2.5000000000E+00               0
GRID*               3145               07.7607186978E-01-2.581638735E+01+
*       2.5000000000E+00               0
GRID*               3146               0-9.488950943E-01-2.683476607E+01+
*       2.5000000000E+00               0
GRID*               3147               0-2.497856651E+00-2.780538696E+01+
*       2.5000000000E+00               0
GRID*               3148               0-3.892066527E+00-2.845040994E+01+
*       2.5000000000E+00               0
GRID*               3149               0-4.164438603E+00-2.947821760E+01+
*       2.5000000000E+00               0
GRID*               3150               04.1328336928E+00-2.510109236E+01+
*       2.5000000000E+00               0
GRID*               3151               03.8266782606E+00-1.891250498E+01+
*       2.5000000000E+00               0
GRID*               3152               03.9887247020E+00-2.023190337E+01+
*       2.5000000000E+00               0
GRID*               3153               04.3398338727E+00-2.144344203E+01+
*       2.5000000000E+00               0
GRID*               3154               04.0174144421E+00-2.267603419E+01+
*       2.5000000000E+00               0
GRID*               3155               0-3.846004638E+00-2.716319385E+01+
*       2.5000000000E+00               0
GRID*               3156               0-3.994646657E+00-2.587535297E+01+
*       2.5000000000E+00               0
GRID*               3157               0-4.336176098E+00-2.468804746E+01+
*       2.5000000000E+00               0
GRID*               3158               0-3.986862706E+00-2.346785518E+01+
*       2.5000000000E+00               0
GRID*               3159               0-2.628558549E+00-2.618475855E+01+
*       2.5000000000E+00               0
GRID*               3160               0-3.147504325E+00-2.466900782E+01+
*       2.5000000000E+00               0
GRID*               3161               0-2.584748947E+00-2.309919207E+01+
*       2.5000000000E+00               0
GRID*               3162               0-1.215263806E+00-2.468831406E+01+
*       2.5000000000E+00               0
GRID*               3163               0-8.156003307E-01-2.244287096E+01+
*       2.5000000000E+00               0
GRID*               3164               08.8375926176E-01-2.374942948E+01+
*       2.5000000000E+00               0
GRID*               3165               01.2335203994E+00-2.147074776E+01+
*       2.5000000000E+00               0
GRID*               3166               02.6655097698E+00-2.306342491E+01+
*       2.5000000000E+00               0
GRID*               3167               03.1617216723E+00-2.146805167E+01+
*       2.5000000000E+00               0
GRID*               3168               02.6140661755E+00-1.991884511E+01+
*       2.5000000000E+00               0
GRID*               3169               07.6439582657E-01-2.968284221E+01+
*       2.5000000000E+00               0
GRID*               3170               07.2730721352E-01-3.152942188E+01+
*       2.5000000000E+00               0
GRID*               3171               07.6215112054E-01-3.336860974E+01+
*       2.5000000000E+00               0
GRID*               3172               07.6655885418E-01-3.524352106E+01+
*       2.5000000000E+00               0
GRID*               3173               07.3552840570E-01-3.706935416E+01+
*       2.5000000000E+00               0
GRID*               3174               03.7437081999E+00-3.157905109E+01+
*       2.5000000000E+00               0
GRID*               3175               02.3397383661E+00-3.240059803E+01+
*       2.5000000000E+00               0
GRID*               3176               02.3412455207E+00-3.619148638E+01+
*       2.5000000000E+00               0
GRID*               3177               02.5831852617E+00-3.429436024E+01+
*       2.5000000000E+00               0
GRID*               3178               03.8308076949E+00-3.559909018E+01+
*       2.5000000000E+00               0
GRID*               3179               04.2083288277E+00-3.428219881E+01+
*       2.5000000000E+00               0
GRID*               3180               03.8307682910E+00-3.297132710E+01+
*       2.5000000000E+00               0
GRID*               3181               03.8400785383E+00-3.018582653E+01+
*       2.5000000000E+00               0
GRID*               3182               04.2222239051E+00-2.888437832E+01+
*       2.5000000000E+00               0
GRID*               3183               03.8765931487E+00-2.754676998E+01+
*       2.5000000000E+00               0
GRID*               3184               02.3440216225E+00-3.070711601E+01+
*       2.5000000000E+00               0
GRID*               3185               02.6093425002E+00-2.880505381E+01+
*       2.5000000000E+00               0
GRID*               3186               0-2.741238996E+00-3.150562745E+01+
*       2.5000000000E+00               0
GRID*               3187               0-9.379971267E-01-3.243503110E+01+
*       2.5000000000E+00               0
GRID*               3188               0-9.707756248E-01-3.056888953E+01+
*       2.5000000000E+00               0
GRID*               3189               0-9.202059866E-01-3.616807018E+01+
*       2.5000000000E+00               0
GRID*               3190               0-2.521129228E+00-3.712563881E+01+
*       2.5000000000E+00               0
GRID*               3191               0-3.912072238E+00-3.785347216E+01+
*       2.5000000000E+00               0
GRID*               3192               0-9.378330448E-01-3.800784092E+01+
*       2.5000000000E+00               0
GRID*               3193               0-2.744070303E+00-3.893540767E+01+
*       2.5000000000E+00               0
GRID*               3194               0-4.001429844E+00-3.993131684E+01+
*       2.5000000000E+00               0
GRID*               3195               0-4.166592537E+00-4.096741204E+01+
*       2.5000000000E+00               0
GRID*               3196               0-4.171983548E+00-3.890247656E+01+
*       2.5000000000E+00               0
GRID*               3197               0-9.241595609E-01-3.429189128E+01+
*       2.5000000000E+00               0
GRID*               3198               0-3.912635352E+00-3.258672975E+01+
*       2.5000000000E+00               0
GRID*               3199               0-2.528069118E+00-3.332319771E+01+
*       2.5000000000E+00               0
GRID*               3200               0-4.170460787E+00-3.153435058E+01+
*       2.5000000000E+00               0
GRID*               3201               0-2.711350879E+00-3.522380209E+01+
*       2.5000000000E+00               0
GRID*               3202               0-3.919682814E+00-3.392599198E+01+
*       2.5000000000E+00               0
GRID*               3203               0-4.257510517E+00-3.521860035E+01+
*       2.5000000000E+00               0
GRID*               3204               0-3.919100496E+00-3.651348496E+01+
*       2.5000000000E+00               0
GRID*               3205               0-3.832881714E+003.1280301199E+00+
*       2.5000000000E+00               0
GRID*               3206               0-2.469978221E+002.3614377630E+00+
*       2.5000000000E+00               0
GRID*               3207               0-8.805135084E-011.4008610232E+00+
*       2.5000000000E+00               0
GRID*               3208               08.2759209654E-013.8387392741E-01+
*       2.5000000000E+00               0
GRID*               3209               02.4496248020E+00-6.823799652E-01+
*       2.5000000000E+00               0
GRID*               3210               03.8673867472E+00-1.508564341E+00+
*       2.5000000000E+00               0
GRID*               3211               0-3.816949490E+001.3757946089E+01+
*       2.5000000000E+00               0
GRID*               3212               0-2.320682934E+001.3097201761E+01+
*       2.5000000000E+00               0
GRID*               3213               0-6.690554355E-011.2176081724E+01+
*       2.5000000000E+00               0
GRID*               3214               01.0191253644E+001.1173334984E+01+
*       2.5000000000E+00               0
GRID*               3215               02.7860321070E+001.0201622949E+01+
*       2.5000000000E+00               0
GRID*               3216               03.9517868222E+009.1031916591E+00+
*       2.5000000000E+00               0
GRID*               3217               0-4.041245736E+001.5047163726E+01+
*       2.5000000000E+00               0
GRID*               3218               0-4.349859414E+001.5899183546E+01+
*       2.5000000000E+00               0
GRID*               3219               0-2.366137728E+001.6799276651E+01+
*       2.5000000000E+00               0
GRID*               3220               0-1.000790157E+001.6340934117E+01+
*       2.5000000000E+00               0
GRID*               3221               02.2780723873E-011.5841496156E+01+
*       2.5000000000E+00               0
GRID*               3222               01.2234698491E+001.4984703107E+01+
*       2.5000000000E+00               0
GRID*               3223               02.6109334293E+001.4130726970E+01+
*       2.5000000000E+00               0
GRID*               3224               03.9484875255E+001.3471729680E+01+
*       2.5000000000E+00               0
GRID*               3225               01.2428844205E-011.6802921280E+01+
*       2.5000000000E+00               0
GRID*               3226               0-5.733537864E-011.4383976673E+01+
*       2.5000000000E+00               0
GRID*               3227               0-2.516201970E+001.5087087767E+01+
*       2.5000000000E+00               0
GRID*               3228               0-3.482365013E+001.6175804825E+01+
*       2.5000000000E+00               0
GRID*               3229               01.0731567344E+001.3191115491E+01+
*       2.5000000000E+00               0
GRID*               3230               02.8021800246E+001.2272239727E+01+
*       2.5000000000E+00               0
GRID*               3231               04.0262961828E+001.1301366562E+01+
*       2.5000000000E+00               0
GRID*               3232               04.1910409661E+001.2376284353E+01+
*       2.5000000000E+00               0
GRID*               3233               04.1889142671E+001.0232913935E+01+
*       2.5000000000E+00               0
GRID*               3234               0-4.009711735E+006.3039348878E+00+
*       2.5000000000E+00               0
GRID*               3235               0-2.662156415E+006.9600188326E+00+
*       2.5000000000E+00               0
GRID*               3236               0-8.817103756E-017.9183919010E+00+
*       2.5000000000E+00               0
GRID*               3237               09.7627978664E-019.0764723249E+00+
*       2.5000000000E+00               0
GRID*               3238               0-7.658287365E-011.0086545052E+01+
*       2.5000000000E+00               0
GRID*               3239               0-2.372192556E+001.1141835194E+01+
*       2.5000000000E+00               0
GRID*               3240               0-2.679940478E+009.0005334578E+00+
*       2.5000000000E+00               0
GRID*               3241               0-3.900734675E+001.2073671434E+01+
*       2.5000000000E+00               0
GRID*               3242               0-3.880520135E+001.0351905684E+01+
*       2.5000000000E+00               0
GRID*               3243               0-4.253312950E+008.9439127939E+00+
*       2.5000000000E+00               0
GRID*               3244               0-3.957782856E+007.6237917170E+00+
*       2.5000000000E+00               0
GRID*               3245               03.8925090361E+005.9802851797E+00+
*       2.5000000000E+00               0
GRID*               3246               02.5196819494E+005.2715619700E+00+
*       2.5000000000E+00               0
GRID*               3247               08.0055803029E-014.4360738159E+00+
*       2.5000000000E+00               0
GRID*               3248               0-9.246783766E-013.3424932765E+00+
*       2.5000000000E+00               0
GRID*               3249               08.1351275649E-012.3793624198E+00+
*       2.5000000000E+00               0
GRID*               3250               02.6464471976E+001.3070516800E+00+
*       2.5000000000E+00               0
GRID*               3251               02.4401560835E+003.4012388769E+00+
*       2.5000000000E+00               0
GRID*               3252               03.8871566335E+00-1.279755152E-01+
*       2.5000000000E+00               0
GRID*               3253               04.2366990445E+001.1929971885E+00+
*       2.5000000000E+00               0
GRID*               3254               03.8906582754E+002.6176960000E+00+
*       2.5000000000E+00               0
GRID*               3255               03.9503401058E+004.3339871212E+00+
*       2.5000000000E+00               0
GRID*               3256               0-2.613418796E+004.0085912417E+00+
*       2.5000000000E+00               0
GRID*               3257               0-4.235015582E+005.3051069405E+00+
*       2.5000000000E+00               0
GRID*               3258               0-3.982579239E+004.3662406566E+00+
*       2.5000000000E+00               0
GRID*               3259               0-1.196062453E+005.5414952174E+00+
*       2.5000000000E+00               0
GRID*               3260               0-3.149101448E+005.4070921287E+00+
*       2.5000000000E+00               0
GRID*               3261               01.0983196942E+006.7546235686E+00+
*       2.5000000000E+00               0
GRID*               3262               04.0324051164E+007.5476450254E+00+
*       2.5000000000E+00               0
GRID*               3263               02.8662250770E+006.7611674952E+00+
*       2.5000000000E+00               0
GRID*               3264               02.6402715408E+008.2489198568E+00+
*       2.5000000000E+00               0
GRID*               3265               03.7447947287E+00-9.144596246E+00+
*       2.5000000000E+00               0
GRID*               3266               02.3344811575E+00-1.001797178E+01+
*       2.5000000000E+00               0
GRID*               3267               08.2626675290E-01-1.104852079E+01+
*       2.5000000000E+00               0
GRID*               3268               0-7.715793091E-01-1.210559874E+01+
*       2.5000000000E+00               0
GRID*               3269               0-2.378146090E+00-1.299616480E+01+
*       2.5000000000E+00               0
GRID*               3270               0-3.806478164E+00-1.375362580E+01+
*       2.5000000000E+00               0
GRID*               3271               0-2.402459415E+00-1.941367368E+01+
*       2.5000000000E+00               0
GRID*               3272               0-2.528358716E+00-1.757572192E+01+
*       2.5000000000E+00               0
GRID*               3273               0-2.843024696E+00-1.613292367E+01+
*       2.5000000000E+00               0
GRID*               3274               0-2.514536120E+00-1.473294873E+01+
*       2.5000000000E+00               0
GRID*               3275               0-3.947587650E+00-1.848689287E+01+
*       2.5000000000E+00               0
GRID*               3276               0-3.921540137E+00-2.040850821E+01+
*       2.5000000000E+00               0
GRID*               3277               0-3.890740912E+00-1.685671927E+01+
*       2.5000000000E+00               0
GRID*               3278               0-3.992983957E+00-1.532373808E+01+
*       2.5000000000E+00               0
GRID*               3279               0-8.516844384E-01-1.836501744E+01+
*       2.5000000000E+00               0
GRID*               3280               0-1.124902302E+00-1.620844703E+01+
*       2.5000000000E+00               0
GRID*               3281               0-8.070115297E-01-1.406841028E+01+
*       2.5000000000E+00               0
GRID*               3282               08.2237211113E-01-1.730426496E+01+
*       2.5000000000E+00               0
GRID*               3283               08.8020599962E-01-1.527970913E+01+
*       2.5000000000E+00               0
GRID*               3284               01.1484122322E+00-1.312668604E+01+
*       2.5000000000E+00               0
GRID*               3285               03.9115658346E+00-1.540044879E+01+
*       2.5000000000E+00               0
GRID*               3286               02.6622561689E+00-1.641367372E+01+
*       2.5000000000E+00               0
GRID*               3287               04.1235601177E+00-1.652241843E+01+
*       2.5000000000E+00               0
GRID*               3288               02.5966189105E+00-1.454260253E+01+
*       2.5000000000E+00               0
GRID*               3289               02.8585609748E+00-1.312288265E+01+
*       2.5000000000E+00               0
GRID*               3290               02.5078779189E+00-1.173158686E+01+
*       2.5000000000E+00               0
GRID*               3291               03.8875929629E+00-1.235376500E+01+
*       2.5000000000E+00               0
GRID*               3292               03.9114575316E+00-1.076321270E+01+
*       2.5000000000E+00               0
GRID*               3293               04.0231773448E+00-1.387962749E+01+
*       2.5000000000E+00               0
GRID*               3294               02.3242232978E+00-8.277770196E+00+
*       2.5000000000E+00               0
GRID*               3295               07.0890545234E-01-7.240209022E+00+
*       2.5000000000E+00               0
GRID*               3296               0-9.498695046E-01-6.158083676E+00+
*       2.5000000000E+00               0
GRID*               3297               0-2.497279290E+00-5.132664234E+00+
*       2.5000000000E+00               0
GRID*               3298               0-3.893606849E+00-4.329233960E+00+
*       2.5000000000E+00               0
GRID*               3299               06.8798838153E-01-9.170863515E+00+
*       2.5000000000E+00               0
GRID*               3300               0-1.209987135E+00-8.191247007E+00+
*       2.5000000000E+00               0
GRID*               3301               0-9.058797438E-01-1.022292638E+01+
*       2.5000000000E+00               0
GRID*               3302               0-2.585465602E+00-6.819228498E+00+
*       2.5000000000E+00               0
GRID*               3303               0-2.884233741E+00-8.179613064E+00+
*       2.5000000000E+00               0
GRID*               3304               0-2.552857653E+00-9.546706282E+00+
*       2.5000000000E+00               0
GRID*               3305               0-2.393119138E+00-1.124011640E+01+
*       2.5000000000E+00               0
GRID*               3306               0-3.816669707E+00-1.047558405E+01+
*       2.5000000000E+00               0
GRID*               3307               0-3.899566953E+00-1.211131059E+01+
*       2.5000000000E+00               0
GRID*               3308               0-3.912564120E+00-7.428917040E+00+
*       2.5000000000E+00               0
GRID*               3309               0-3.971802902E+00-5.873063707E+00+
*       2.5000000000E+00               0
GRID*               3310               0-4.009976489E+00-8.924439446E+00+
*       2.5000000000E+00               0
GRID*               3311               02.6233404900E+00-2.546690712E+00+
*       2.5000000000E+00               0
GRID*               3312               02.4314237885E+00-4.382920977E+00+
*       2.5000000000E+00               0
GRID*               3313               02.5956388563E+00-6.332595675E+00+
*       2.5000000000E+00               0
GRID*               3314               03.8628055387E+00-3.677530829E+00+
*       2.5000000000E+00               0
GRID*               3315               04.1111017846E+00-2.602034925E+00+
*       2.5000000000E+00               0
GRID*               3316               03.8321276740E+00-7.703477340E+00+
*       2.5000000000E+00               0
GRID*               3317               04.2174826284E+00-6.377682128E+00+
*       2.5000000000E+00               0
GRID*               3318               03.8709283309E+00-5.044435730E+00+
*       2.5000000000E+00               0
GRID*               3319               0-4.126983599E+00-3.225467150E+00+
*       2.5000000000E+00               0
GRID*               3320               0-3.884327872E+00-2.166094575E+00+
*       2.5000000000E+00               0
GRID*               3321               0-3.897878143E+00-8.196136526E-01+
*       2.5000000000E+00               0
GRID*               3322               0-4.242193001E+004.8555942205E-01+
*       2.5000000000E+00               0
GRID*               3323               0-3.888485413E+001.7777186746E+00+
*       2.5000000000E+00               0
GRID*               3324               0-8.740843287E-01-5.375356861E-01+
*       2.5000000000E+00               0
GRID*               3325               0-8.779837685E-01-2.425403623E+00+
*       2.5000000000E+00               0
GRID*               3326               0-8.976350485E-01-4.290704414E+00+
*       2.5000000000E+00               0
GRID*               3327               08.2548358266E-01-1.536496003E+00+
*       2.5000000000E+00               0
GRID*               3328               08.1381828261E-01-3.415701436E+00+
*       2.5000000000E+00               0
GRID*               3329               07.7975081141E-01-5.299274982E+00+
*       2.5000000000E+00               0
GRID*               3330               0-2.484163431E+00-1.469350530E+00+
*       2.5000000000E+00               0
GRID*               3331               0-2.666783179E+00-3.290127017E+00+
*       2.5000000000E+00               0
GRID*               3332               0-2.677975905E+004.5838667998E-01+
*       2.5000000000E+00               0
GRID*               3333               06.6321937625E+00-1.240003575E+02+
*       -2.792893171E+00               0
GRID*               3334               06.4093145201E+00-1.230236476E+02+
*       -2.792893171E+00               0
GRID*               3335               06.0428686340E+00-1.220899071E+02+
*       -2.792893171E+00               0
GRID*               3336               05.5416058953E+00-1.212216584E+02+
*       -2.792893171E+00               0
GRID*               3337               04.9166520337E+00-1.204380132E+02+
*       -2.792893171E+00               0
GRID*               3338               04.1818073745E+00-1.197561785E+02+
*       -2.792893171E+00               0
GRID*               3339               03.3539004310E+00-1.191916753E+02+
*       -2.792893171E+00               0
GRID*               3340               02.4499978833E+00-1.187564045E+02+
*       -2.792893171E+00               0
GRID*               3341               01.4922202003E+00-1.184609966E+02+
*       -2.792893171E+00               0
GRID*               3342               05.0122225226E-01-1.183116562E+02+
*       -2.792893171E+00               0
GRID*               3343               0-5.012218594E-01-1.183116561E+02+
*       -2.792893171E+00               0
GRID*               3344               0-1.492219816E+00-1.184609965E+02+
*       -2.792893171E+00               0
GRID*               3345               0-2.449997516E+00-1.187564044E+02+
*       -2.792893171E+00               0
GRID*               3346               0-3.353900090E+00-1.191916752E+02+
*       -2.792893171E+00               0
GRID*               3347               0-4.181807066E+00-1.197561782E+02+
*       -2.792893171E+00               0
GRID*               3348               0-4.916651766E+00-1.204380129E+02+
*       -2.792893171E+00               0
GRID*               3349               0-5.541605673E+00-1.212216581E+02+
*       -2.792893171E+00               0
GRID*               3350               0-6.042868463E+00-1.220899067E+02+
*       -2.792893171E+00               0
GRID*               3351               0-6.409314404E+00-1.230236472E+02+
*       -2.792893171E+00               0
GRID*               3352               0-6.632193704E+00-1.240003571E+02+
*       -2.792893171E+00               0
GRID*               3353               0-6.707106590E+00-1.249999996E+02+
*       -2.792893171E+00               0
GRID*               3354               0-6.632193821E+00-1.259996421E+02+
*       -2.792893171E+00               0
GRID*               3355               0-6.409314705E+00-1.269763520E+02+
*       -2.792893171E+00               0
GRID*               3356               0-6.042868150E+00-1.279100922E+02+
*       -2.792893171E+00               0
GRID*               3357               0-5.541605975E+00-1.287783412E+02+
*       -2.792893171E+00               0
GRID*               3358               0-4.916650503E+00-1.295619851E+02+
*       -2.792893171E+00               0
GRID*               3359               0-4.181806482E+00-1.302438205E+02+
*       -2.792893171E+00               0
GRID*               3360               0-3.353903042E+00-1.308083288E+02+
*       -2.792893171E+00               0
GRID*               3361               0-2.450003297E+00-1.312436072E+02+
*       -2.792893171E+00               0
GRID*               3362               0-1.492219000E+00-1.315389935E+02+
*       -2.792893171E+00               0
GRID*               3363               0-5.012220151E-01-1.316883405E+02+
*       -2.792893171E+00               0
GRID*               3364               05.0122162221E-01-1.316883406E+02+
*       -2.792893171E+00               0
GRID*               3365               01.4922186160E+00-1.315389936E+02+
*       -2.792893171E+00               0
GRID*               3366               02.4500029299E+00-1.312436074E+02+
*       -2.792893171E+00               0
GRID*               3367               03.3539027007E+00-1.308083290E+02+
*       -2.792893171E+00               0
GRID*               3368               04.1818061743E+00-1.302438208E+02+
*       -2.792893171E+00               0
GRID*               3369               04.9166502345E+00-1.295619853E+02+
*       -2.792893171E+00               0
GRID*               3370               05.5416057527E+00-1.287783416E+02+
*       -2.792893171E+00               0
GRID*               3371               06.0428679791E+00-1.279100926E+02+
*       -2.792893171E+00               0
GRID*               3372               06.4093145893E+00-1.269763524E+02+
*       -2.792893171E+00               0
GRID*               3373               06.6321937625E+00-1.259996425E+02+
*       -2.792893171E+00               0
GRID*               3374               06.6321732096E+002.5999778533E+01+
*       -2.792893171E+00               0
GRID*               3375               06.4092336181E+002.6976615107E+01+
*       -2.792893171E+00               0
GRID*               3376               06.0430266616E+002.7909824805E+01+
*       -2.792893171E+00               0
GRID*               3377               05.5421095523E+002.8777603121E+01+
*       -2.792893171E+00               0
GRID*               3378               04.9171677375E+002.9561432785E+01+
*       -2.792893171E+00               0
GRID*               3379               04.1822919095E+003.0243435501E+01+
*       -2.792893171E+00               0
GRID*               3380               03.3543175479E+003.0808083776E+01+
*       -2.792893171E+00               0
GRID*               3381               02.4503189162E+003.1243470181E+01+
*       -2.792893171E+00               0
GRID*               3382               01.4924209611E+003.1538954726E+01+
*       -2.792893171E+00               0
GRID*               3383               05.0129053801E-013.1688337002E+01+
*       -2.792893171E+00               0
GRID*               3384               0-5.012904843E-013.1688337006E+01+
*       -2.792893171E+00               0
GRID*               3385               0-1.492420909E+003.1538954738E+01+
*       -2.792893171E+00               0
GRID*               3386               0-2.450025486E+003.1243599158E+01+
*       -2.792893171E+00               0
GRID*               3387               0-3.353067335E+003.0808805628E+01+
*       -2.792893171E+00               0
GRID*               3388               0-4.181162441E+003.0244336245E+01+
*       -2.792893171E+00               0
GRID*               3389               0-4.916185158E+002.9562491829E+01+
*       -2.792893171E+00               0
GRID*               3390               0-5.541296253E+002.8778796099E+01+
*       -2.792893171E+00               0
GRID*               3391               0-6.042689430E+002.7910465085E+01+
*       -2.792893171E+00               0
GRID*               3392               0-6.409233606E+002.6976615148E+01+
*       -2.792893171E+00               0
GRID*               3393               0-6.632173203E+002.5999778575E+01+
*       -2.792893171E+00               0
GRID*               3394               0-6.707106590E+002.5000000043E+01+
*       -2.792893171E+00               0
GRID*               3395               0-6.632173215E+002.4000221510E+01+
*       -2.792893171E+00               0
GRID*               3396               0-6.409233548E+002.3023384959E+01+
*       -2.792893171E+00               0
GRID*               3397               0-6.043026214E+002.2090175414E+01+
*       -2.792893171E+00               0
GRID*               3398               0-5.542109529E+002.1222396862E+01+
*       -2.792893171E+00               0
GRID*               3399               0-4.917167722E+002.0438567191E+01+
*       -2.792893171E+00               0
GRID*               3400               0-4.182291887E+001.9756564481E+01+
*       -2.792893171E+00               0
GRID*               3401               0-3.354317523E+001.9191916209E+01+
*       -2.792893171E+00               0
GRID*               3402               0-2.450318960E+001.8756529637E+01+
*       -2.792893171E+00               0
GRID*               3403               0-1.492420942E+001.8461045317E+01+
*       -2.792893171E+00               0
GRID*               3404               0-5.012905208E-011.8311663026E+01+
*       -2.792893171E+00               0
GRID*               3405               05.0129049566E-011.8311663024E+01+
*       -2.792893171E+00               0
GRID*               3406               01.4924209177E+001.8461045312E+01+
*       -2.792893171E+00               0
GRID*               3407               02.4500255437E+001.8756400708E+01+
*       -2.792893171E+00               0
GRID*               3408               03.3530673384E+001.9191194374E+01+
*       -2.792893171E+00               0
GRID*               3409               04.1811624447E+001.9755663758E+01+
*       -2.792893171E+00               0
GRID*               3410               04.9161851652E+002.0437508171E+01+
*       -2.792893171E+00               0
GRID*               3411               05.5412962295E+002.1221203923E+01+
*       -2.792893171E+00               0
GRID*               3412               06.0426892565E+002.2089535015E+01+
*       -2.792893171E+00               0
GRID*               3413               06.4092335339E+002.3023384918E+01+
*       -2.792893171E+00               0
GRID*               3414               06.6321732084E+002.4000221467E+01+
*       -2.792893171E+00               0
GRID*               3415               04.6189497099E+00-1.230855581E+02+
*       -4.500000000E+00               0
GRID*               3416               03.5355324746E+00-1.214644666E+02+
*       -4.500000000E+00               0
GRID*               3417               01.9144459855E+00-1.203810533E+02+
*       -4.500000000E+00               0
GRID*               3418               01.6145688483E-05-1.200000000E+02+
*       -4.500000000E+00               0
GRID*               3419               0-1.914416194E+00-1.203810409E+02+
*       -4.500000000E+00               0
GRID*               3420               0-3.535509695E+00-1.214644438E+02+
*       -4.500000000E+00               0
GRID*               3421               0-4.618937364E+00-1.230855283E+02+
*       -4.500000000E+00               0
GRID*               3422               0-5.000000000E+00-1.249999677E+02+
*       -4.500000000E+00               0
GRID*               3423               0-4.618967078E+00-1.269144000E+02+
*       -4.500000000E+00               0
GRID*               3424               0-3.535586059E+00-1.285354837E+02+
*       -4.500000000E+00               0
GRID*               3425               0-1.914503198E+00-1.296189200E+02+
*       -4.500000000E+00               0
GRID*               3426               0-1.613953598E-05-1.300000000E+02+
*       -4.500000000E+00               0
GRID*               3427               01.9144734115E+00-1.296189323E+02+
*       -4.500000000E+00               0
GRID*               3428               03.5355632788E+00-1.285355064E+02+
*       -4.500000000E+00               0
GRID*               3429               04.6189547323E+00-1.269144298E+02+
*       -4.500000000E+00               0
GRID*               3430               04.6189547323E+00-1.269144298E+02+
*       4.5000000000E+00               0
GRID*               3431               03.5355632788E+00-1.285355064E+02+
*       4.5000000000E+00               0
GRID*               3432               01.9144734115E+00-1.296189323E+02+
*       4.5000000000E+00               0
GRID*               3433               0-1.613953597E-05-1.300000000E+02+
*       4.5000000000E+00               0
GRID*               3434               0-1.914503198E+00-1.296189200E+02+
*       4.5000000000E+00               0
GRID*               3435               0-3.535586059E+00-1.285354837E+02+
*       4.5000000000E+00               0
GRID*               3436               0-4.618967078E+00-1.269144000E+02+
*       4.5000000000E+00               0
GRID*               3437               0-5.000000000E+00-1.249999677E+02+
*       4.5000000000E+00               0
GRID*               3438               0-4.618937364E+00-1.230855283E+02+
*       4.5000000000E+00               0
GRID*               3439               0-3.535509695E+00-1.214644438E+02+
*       4.5000000000E+00               0
GRID*               3440               0-1.914416194E+00-1.203810409E+02+
*       4.5000000000E+00               0
GRID*               3441               01.6145688484E-05-1.200000000E+02+
*       4.5000000000E+00               0
GRID*               3442               01.9144459855E+00-1.203810533E+02+
*       4.5000000000E+00               0
GRID*               3443               03.5355324746E+00-1.214644666E+02+
*       4.5000000000E+00               0
GRID*               3444               04.6189497099E+00-1.230855581E+02+
*       4.5000000000E+00               0
GRID*               3445               0-5.000000000E+001.9409830093E+01+
*       -1.491532064E+00               0
GRID*               3446               0-5.000000000E+001.9409830093E+01+
*       -4.863262830E-01               0
GRID*               3447               0-5.000000000E+001.9409830093E+01+
*       5.1363966119E-01               0
GRID*               3448               0-5.000000000E+001.9409830093E+01+
*       1.5084128319E+00               0
GRID*               3449               04.6189474872E+002.6914446444E+01+
*       -4.500000000E+00               0
GRID*               3450               03.5355377047E+002.8535530105E+01+
*       -4.500000000E+00               0
GRID*               3451               01.9144624046E+002.9618941331E+01+
*       -4.500000000E+00               0
GRID*               3452               01.9074978565E-053.0000000000E+01+
*       -4.500000000E+00               0
GRID*               3453               0-1.914427200E+002.9618955924E+01+
*       -4.500000000E+00               0
GRID*               3454               0-3.535510780E+002.8535557030E+01+
*       -4.500000000E+00               0
GRID*               3455               0-4.618932895E+002.6914481646E+01+
*       -4.500000000E+00               0
GRID*               3456               0-5.000000000E+002.5000038146E+01+
*       -4.500000000E+00               0
GRID*               3457               0-4.618962077E+002.3085589154E+01+
*       -4.500000000E+00               0
GRID*               3458               0-3.535556457E+002.1464488648E+01+
*       -4.500000000E+00               0
GRID*               3459               0-1.914468438E+002.0381061646E+01+
*       -4.500000000E+00               0
GRID*               3460               0-1.907166239E-052.0000000000E+01+
*       -4.500000000E+00               0
GRID*               3461               01.9144332369E+002.0381047055E+01+
*       -4.500000000E+00               0
GRID*               3462               03.5355295333E+002.1464461723E+01+
*       -4.500000000E+00               0
GRID*               3463               04.6189474853E+002.3085553952E+01+
*       -4.500000000E+00               0
GRID*               3464               04.6189474853E+002.3085553952E+01+
*       4.5000000000E+00               0
GRID*               3465               03.5355295333E+002.1464461723E+01+
*       4.5000000000E+00               0
GRID*               3466               01.9144332369E+002.0381047055E+01+
*       4.5000000000E+00               0
GRID*               3467               0-1.907166238E-052.0000000000E+01+
*       4.5000000000E+00               0
GRID*               3468               0-1.914468438E+002.0381061646E+01+
*       4.5000000000E+00               0
GRID*               3469               0-3.535556457E+002.1464488648E+01+
*       4.5000000000E+00               0
GRID*               3470               0-4.618962077E+002.3085589154E+01+
*       4.5000000000E+00               0
GRID*               3471               0-5.000000000E+002.5000038146E+01+
*       4.5000000000E+00               0
GRID*               3472               0-4.618932895E+002.6914481646E+01+
*       4.5000000000E+00               0
GRID*               3473               0-3.535510780E+002.8535557030E+01+
*       4.5000000000E+00               0
GRID*               3474               0-1.914427200E+002.9618955924E+01+
*       4.5000000000E+00               0
GRID*               3475               01.9074978561E-053.0000000000E+01+
*       4.5000000000E+00               0
GRID*               3476               01.9144624046E+002.9618941331E+01+
*       4.5000000000E+00               0
GRID*               3477               03.5355377047E+002.8535530105E+01+
*       4.5000000000E+00               0
GRID*               3478               04.6189474872E+002.6914446444E+01+
*       4.5000000000E+00               0
GRID*               3479               02.3094975583E+00-1.240428440E+02+
*       -4.500000000E+00               0
GRID*               3480               01.7672155825E+00-1.232316809E+02+
*       -4.500000000E+00               0
GRID*               3481               09.5638212002E-01-1.226901981E+02+
*       -4.500000000E+00               0
GRID*               3482               02.9870795460E-04-1.225000000E+02+
*       -4.500000000E+00               0
GRID*               3483               0-9.564388121E-01-1.226901920E+02+
*       -4.500000000E+00               0
GRID*               3484               0-1.767684996E+00-1.232321501E+02+
*       -4.500000000E+00               0
GRID*               3485               0-2.309533906E+00-1.240429730E+02+
*       -4.500000000E+00               0
GRID*               3486               0-2.500000000E+00-1.250000002E+02+
*       -4.500000000E+00               0
GRID*               3487               0-2.309534062E+00-1.259570275E+02+
*       -4.500000000E+00               0
GRID*               3488               0-1.767684901E+00-1.267678500E+02+
*       -4.500000000E+00               0
GRID*               3489               0-9.564383207E-01-1.273098072E+02+
*       -4.500000000E+00               0
GRID*               3490               02.9888738658E-04-1.275000000E+02+
*       -4.500000000E+00               0
GRID*               3491               09.5638229933E-01-1.273098021E+02+
*       -4.500000000E+00               0
GRID*               3492               01.7672156313E+00-1.267683191E+02+
*       -4.500000000E+00               0
GRID*               3493               02.3094980061E+00-1.259571561E+02+
*       -4.500000000E+00               0
GRID*               3494               02.3094980061E+00-1.259571561E+02+
*       4.5000000000E+00               0
GRID*               3495               01.7672156313E+00-1.267683191E+02+
*       4.5000000000E+00               0
GRID*               3496               09.5638229933E-01-1.273098021E+02+
*       4.5000000000E+00               0
GRID*               3497               02.9888738658E-04-1.275000000E+02+
*       4.5000000000E+00               0
GRID*               3498               0-9.564383207E-01-1.273098072E+02+
*       4.5000000000E+00               0
GRID*               3499               0-1.767684901E+00-1.267678500E+02+
*       4.5000000000E+00               0
GRID*               3500               0-2.309534062E+00-1.259570275E+02+
*       4.5000000000E+00               0
GRID*               3501               0-2.500000000E+00-1.250000002E+02+
*       4.5000000000E+00               0
GRID*               3502               0-2.309533906E+00-1.240429730E+02+
*       4.5000000000E+00               0
GRID*               3503               0-1.767684996E+00-1.232321501E+02+
*       4.5000000000E+00               0
GRID*               3504               0-9.564388121E-01-1.226901920E+02+
*       4.5000000000E+00               0
GRID*               3505               02.9870795460E-04-1.225000000E+02+
*       4.5000000000E+00               0
GRID*               3506               09.5638212002E-01-1.226901981E+02+
*       4.5000000000E+00               0
GRID*               3507               01.7672155825E+00-1.232316809E+02+
*       4.5000000000E+00               0
GRID*               3508               02.3094975583E+00-1.240428440E+02+
*       4.5000000000E+00               0
GRID*               3509               02.3094976438E+002.5957155799E+01+
*       -4.500000000E+00               0
GRID*               3510               01.7672153754E+002.6768318357E+01+
*       -4.500000000E+00               0
GRID*               3511               09.5638221140E-012.7309800953E+01+
*       -4.500000000E+00               0
GRID*               3512               02.9843964529E-042.7499999982E+01+
*       -4.500000000E+00               0
GRID*               3513               0-9.564395094E-012.7309807836E+01+
*       -4.500000000E+00               0
GRID*               3514               0-1.767684672E+002.6767849229E+01+
*       -4.500000000E+00               0
GRID*               3515               0-2.309533837E+002.5957026998E+01+
*       -4.500000000E+00               0
GRID*               3516               0-2.500000000E+002.4999999977E+01+
*       -4.500000000E+00               0
GRID*               3517               0-2.309533820E+002.4042972959E+01+
*       -4.500000000E+00               0
GRID*               3518               0-1.767684640E+002.3232150739E+01+
*       -4.500000000E+00               0
GRID*               3519               0-9.564399694E-012.2690190873E+01+
*       -4.500000000E+00               0
GRID*               3520               02.9837393934E-042.2500000018E+01+
*       -4.500000000E+00               0
GRID*               3521               09.5638208094E-012.2690199193E+01+
*       -4.500000000E+00               0
GRID*               3522               01.7672153754E+002.3231681643E+01+
*       -4.500000000E+00               0
GRID*               3523               02.3094976438E+002.4042844201E+01+
*       -4.500000000E+00               0
GRID*               3524               02.3094976438E+002.4042844201E+01+
*       4.5000000000E+00               0
GRID*               3525               01.7672153754E+002.3231681643E+01+
*       4.5000000000E+00               0
GRID*               3526               09.5638208094E-012.2690199193E+01+
*       4.5000000000E+00               0
GRID*               3527               02.9837393934E-042.2500000018E+01+
*       4.5000000000E+00               0
GRID*               3528               0-9.564399694E-012.2690190873E+01+
*       4.5000000000E+00               0
GRID*               3529               0-1.767684640E+002.3232150739E+01+
*       4.5000000000E+00               0
GRID*               3530               0-2.309533820E+002.4042972959E+01+
*       4.5000000000E+00               0
GRID*               3531               0-2.500000000E+002.4999999977E+01+
*       4.5000000000E+00               0
GRID*               3532               0-2.309533837E+002.5957026998E+01+
*       4.5000000000E+00               0
GRID*               3533               0-1.767684672E+002.6767849229E+01+
*       4.5000000000E+00               0
GRID*               3534               0-9.564395094E-012.7309807836E+01+
*       4.5000000000E+00               0
GRID*               3535               02.9843964529E-042.7499999982E+01+
*       4.5000000000E+00               0
GRID*               3536               09.5638221140E-012.7309800953E+01+
*       4.5000000000E+00               0
GRID*               3537               01.7672153754E+002.6768318357E+01+
*       4.5000000000E+00               0
GRID*               3538               02.3094976438E+002.5957155799E+01+
*       4.5000000000E+00               0
GRID*               3539               0-5.822779049E+002.0273036820E+01+
*       -2.500000000E+00               0
GRID*               3540               0-6.635293659E+002.1503957776E+01+
*       -2.500000000E+00               0
GRID*               3541               0-7.272514950E+002.3166852166E+01+
*       -2.500000000E+00               0
GRID*               3542               0-7.499316035E+002.5101267283E+01+
*       -2.500000000E+00               0
GRID*               3543               0-7.220484123E+002.7028445365E+01+
*       -2.500000000E+00               0
GRID*               3544               0-6.455031182E+002.8818700424E+01+
*       -2.500000000E+00               0
GRID*               3545               0-5.254398641E+003.0351730691E+01+
*       -2.500000000E+00               0
GRID*               3546               0-3.699023106E+003.1524315158E+01+
*       -2.500000000E+00               0
GRID*               3547               0-1.893107305E+003.2257078885E+01+
*       -2.500000000E+00               0
GRID*               3548               04.1817750927E-023.2499803680E+01+
*       -2.500000000E+00               0
GRID*               3549               01.9738908673E+003.2235523737E+01+
*       -2.500000000E+00               0
GRID*               3550               03.7714844342E+003.1482695792E+01+
*       -2.500000000E+00               0
GRID*               3551               05.3136696709E+003.0292883319E+01+
*       -2.500000000E+00               0
GRID*               3552               06.4971382037E+002.8746607689E+01+
*       -2.500000000E+00               0
GRID*               3553               07.2426083581E+002.6947970396E+01+
*       -2.500000000E+00               0
GRID*               3554               07.4999785581E+002.5017811134E+01+
*       -2.500000000E+00               0
GRID*               3555               07.2516484366E+002.3085957999E+01+
*       -2.500000000E+00               0
GRID*               3556               06.6064114881E+002.1449671580E+01+
*       -2.500000000E+00               0
GRID*               3557               05.8072675285E+002.0253996207E+01+
*       -2.500000000E+00               0
GRID*               3558               05.8227807251E+002.0273038884E+01+
*       2.5000000000E+00               0
GRID*               3559               06.6352967674E+002.1503963676E+01+
*       2.5000000000E+00               0
GRID*               3560               07.2725171054E+002.3166860718E+01+
*       2.5000000000E+00               0
GRID*               3561               07.4993159232E+002.5101275581E+01+
*       2.5000000000E+00               0
GRID*               3562               07.2204820198E+002.7028452852E+01+
*       2.5000000000E+00               0
GRID*               3563               06.4550274841E+002.8818706674E+01+
*       2.5000000000E+00               0
GRID*               3564               05.2543938267E+003.0351735418E+01+
*       2.5000000000E+00               0
GRID*               3565               03.6990176834E+003.1524318232E+01+
*       2.5000000000E+00               0
GRID*               3566               01.8931017713E+003.2257080328E+01+
*       2.5000000000E+00               0
GRID*               3567               0-4.182295320E-023.2499803651E+01+
*       2.5000000000E+00               0
GRID*               3568               0-1.973895385E+003.2235522505E+01+
*       2.5000000000E+00               0
GRID*               3569               0-3.771488032E+003.1482693699E+01+
*       2.5000000000E+00               0
GRID*               3570               0-5.313672242E+003.0292880738E+01+
*       2.5000000000E+00               0
GRID*               3571               0-6.497139764E+002.8746604982E+01+
*       2.5000000000E+00               0
GRID*               3572               0-7.242609035E+002.6947967879E+01+
*       2.5000000000E+00               0
GRID*               3573               0-7.499978563E+002.5017809045E+01+
*       2.5000000000E+00               0
GRID*               3574               0-7.251648035E+002.3085956477E+01+
*       2.5000000000E+00               0
GRID*               3575               0-6.606411035E+002.1449670736E+01+
*       2.5000000000E+00               0
GRID*               3576               0-5.807267295E+002.0253995922E+01+
*       2.5000000000E+00               0
GRID*               3577               05.0000000000E+001.9409830093E+01+
*       1.4915310239E+00               0
GRID*               3578               05.0000000000E+001.9409830093E+01+
*       4.8632460676E-01               0
GRID*               3579               05.0000000000E+001.9409830093E+01+
*       -5.136413290E-01               0
GRID*               3580               05.0000000000E+001.9409830093E+01+
*       -1.508413859E+00               0
GRID*               3581               0-6.632193762E+00-1.240003575E+02+
*       2.7928931713E+00               0
GRID*               3582               0-6.409314520E+00-1.230236476E+02+
*       2.7928931713E+00               0
GRID*               3583               0-6.042868634E+00-1.220899071E+02+
*       2.7928931713E+00               0
GRID*               3584               0-5.541605895E+00-1.212216584E+02+
*       2.7928931713E+00               0
GRID*               3585               0-4.916652034E+00-1.204380132E+02+
*       2.7928931713E+00               0
GRID*               3586               0-4.181807375E+00-1.197561785E+02+
*       2.7928931713E+00               0
GRID*               3587               0-3.353900431E+00-1.191916753E+02+
*       2.7928931713E+00               0
GRID*               3588               0-2.449997883E+00-1.187564045E+02+
*       2.7928931713E+00               0
GRID*               3589               0-1.492220200E+00-1.184609966E+02+
*       2.7928931713E+00               0
GRID*               3590               0-5.012222523E-01-1.183116562E+02+
*       2.7928931713E+00               0
GRID*               3591               05.0122185937E-01-1.183116561E+02+
*       2.7928931713E+00               0
GRID*               3592               01.4922198164E+00-1.184609965E+02+
*       2.7928931713E+00               0
GRID*               3593               02.4499975162E+00-1.187564044E+02+
*       2.7928931713E+00               0
GRID*               3594               03.3539000900E+00-1.191916752E+02+
*       2.7928931713E+00               0
GRID*               3595               04.1818070665E+00-1.197561782E+02+
*       2.7928931713E+00               0
GRID*               3596               04.9166517657E+00-1.204380129E+02+
*       2.7928931713E+00               0
GRID*               3597               05.5416056734E+00-1.212216581E+02+
*       2.7928931713E+00               0
GRID*               3598               06.0428684630E+00-1.220899067E+02+
*       2.7928931713E+00               0
GRID*               3599               06.4093144041E+00-1.230236472E+02+
*       2.7928931713E+00               0
GRID*               3600               06.6321937038E+00-1.240003571E+02+
*       2.7928931713E+00               0
GRID*               3601               06.7071065903E+00-1.249999996E+02+
*       2.7928931713E+00               0
GRID*               3602               06.6321938212E+00-1.259996421E+02+
*       2.7928931713E+00               0
GRID*               3603               06.4093147053E+00-1.269763520E+02+
*       2.7928931713E+00               0
GRID*               3604               06.0428681501E+00-1.279100922E+02+
*       2.7928931713E+00               0
GRID*               3605               05.5416059745E+00-1.287783412E+02+
*       2.7928931713E+00               0
GRID*               3606               04.9166505025E+00-1.295619851E+02+
*       2.7928931713E+00               0
GRID*               3607               04.1818064824E+00-1.302438205E+02+
*       2.7928931713E+00               0
GRID*               3608               03.3539030417E+00-1.308083288E+02+
*       2.7928931713E+00               0
GRID*               3609               02.4500032969E+00-1.312436072E+02+
*       2.7928931713E+00               0
GRID*               3610               01.4922189999E+00-1.315389935E+02+
*       2.7928931713E+00               0
GRID*               3611               05.0122201511E-01-1.316883405E+02+
*       2.7928931713E+00               0
GRID*               3612               0-5.012216222E-01-1.316883406E+02+
*       2.7928931713E+00               0
GRID*               3613               0-1.492218616E+00-1.315389936E+02+
*       2.7928931713E+00               0
GRID*               3614               0-2.450002930E+00-1.312436074E+02+
*       2.7928931713E+00               0
GRID*               3615               0-3.353902701E+00-1.308083290E+02+
*       2.7928931713E+00               0
GRID*               3616               0-4.181806174E+00-1.302438208E+02+
*       2.7928931713E+00               0
GRID*               3617               0-4.916650235E+00-1.295619853E+02+
*       2.7928931713E+00               0
GRID*               3618               0-5.541605753E+00-1.287783416E+02+
*       2.7928931713E+00               0
GRID*               3619               0-6.042867979E+00-1.279100926E+02+
*       2.7928931713E+00               0
GRID*               3620               0-6.409314589E+00-1.269763524E+02+
*       2.7928931713E+00               0
GRID*               3621               0-6.632193762E+00-1.259996425E+02+
*       2.7928931713E+00               0
GRID*               3622               0-6.632173210E+002.5999778533E+01+
*       2.7928931713E+00               0
GRID*               3623               0-6.409233618E+002.6976615107E+01+
*       2.7928931713E+00               0
GRID*               3624               0-6.043026662E+002.7909824805E+01+
*       2.7928931713E+00               0
GRID*               3625               0-5.542109552E+002.8777603121E+01+
*       2.7928931713E+00               0
GRID*               3626               0-4.917167737E+002.9561432785E+01+
*       2.7928931713E+00               0
GRID*               3627               0-4.182291910E+003.0243435501E+01+
*       2.7928931713E+00               0
GRID*               3628               0-3.354317548E+003.0808083776E+01+
*       2.7928931713E+00               0
GRID*               3629               0-2.450318916E+003.1243470181E+01+
*       2.7928931713E+00               0
GRID*               3630               0-1.492420961E+003.1538954726E+01+
*       2.7928931713E+00               0
GRID*               3631               0-5.012905380E-013.1688337002E+01+
*       2.7928931713E+00               0
GRID*               3632               05.0129048426E-013.1688337006E+01+
*       2.7928931713E+00               0
GRID*               3633               01.4924209086E+003.1538954738E+01+
*       2.7928931713E+00               0
GRID*               3634               02.4500254859E+003.1243599158E+01+
*       2.7928931713E+00               0
GRID*               3635               03.3530673346E+003.0808805628E+01+
*       2.7928931713E+00               0
GRID*               3636               04.1811624413E+003.0244336245E+01+
*       2.7928931713E+00               0
GRID*               3637               04.9161851581E+002.9562491829E+01+
*       2.7928931713E+00               0
GRID*               3638               05.5412962525E+002.8778796099E+01+
*       2.7928931713E+00               0
GRID*               3639               06.0426894301E+002.7910465085E+01+
*       2.7928931713E+00               0
GRID*               3640               06.4092336063E+002.6976615148E+01+
*       2.7928931713E+00               0
GRID*               3641               06.6321732032E+002.5999778575E+01+
*       2.7928931713E+00               0
GRID*               3642               06.7071065903E+002.5000000043E+01+
*       2.7928931713E+00               0
GRID*               3643               06.6321732148E+002.4000221510E+01+
*       2.7928931713E+00               0
GRID*               3644               06.4092335481E+002.3023384959E+01+
*       2.7928931713E+00               0
GRID*               3645               06.0430262142E+002.2090175414E+01+
*       2.7928931713E+00               0
GRID*               3646               05.5421095293E+002.1222396862E+01+
*       2.7928931713E+00               0
GRID*               3647               04.9171677218E+002.0438567191E+01+
*       2.7928931713E+00               0
GRID*               3648               04.1822918867E+001.9756564481E+01+
*       2.7928931713E+00               0
GRID*               3649               03.3543175226E+001.9191916209E+01+
*       2.7928931713E+00               0
GRID*               3650               02.4503189604E+001.8756529637E+01+
*       2.7928931713E+00               0
GRID*               3651               01.4924209423E+001.8461045317E+01+
*       2.7928931713E+00               0
GRID*               3652               05.0129052080E-011.8311663026E+01+
*       2.7928931713E+00               0
GRID*               3653               0-5.012904957E-011.8311663024E+01+
*       2.7928931713E+00               0
GRID*               3654               0-1.492420918E+001.8461045312E+01+
*       2.7928931713E+00               0
GRID*               3655               0-2.450025544E+001.8756400708E+01+
*       2.7928931713E+00               0
GRID*               3656               0-3.353067338E+001.9191194374E+01+
*       2.7928931713E+00               0
GRID*               3657               0-4.181162445E+001.9755663758E+01+
*       2.7928931713E+00               0
GRID*               3658               0-4.916185165E+002.0437508171E+01+
*       2.7928931713E+00               0
GRID*               3659               0-5.541296230E+002.1221203923E+01+
*       2.7928931713E+00               0
GRID*               3660               0-6.042689257E+002.2089535015E+01+
*       2.7928931713E+00               0
GRID*               3661               0-6.409233534E+002.3023384918E+01+
*       2.7928931713E+00               0
GRID*               3662               0-6.632173208E+002.4000221467E+01+
*       2.7928931713E+00               0
GRID*               3663               04.1890903452E+00-1.188796025E+02+
*       2.5000000000E+00               0
GRID*               3664               03.3366984076E+00-1.183790722E+02+
*       2.5000000000E+00               0
GRID*               3665               02.4257899272E+00-1.179938539E+02+
*       2.5000000000E+00               0
GRID*               3666               01.4729780574E+00-1.177335804E+02+
*       2.5000000000E+00               0
GRID*               3667               04.9370259132E-01-1.176022539E+02+
*       2.5000000000E+00               0
GRID*               3668               0-4.945193488E-01-1.176023085E+02+
*       2.5000000000E+00               0
GRID*               3669               0-1.473779835E+00-1.177337431E+02+
*       2.5000000000E+00               0
GRID*               3670               0-2.427183790E+00-1.179943656E+02+
*       2.5000000000E+00               0
GRID*               3671               0-3.338032831E+00-1.183797234E+02+
*       2.5000000000E+00               0
GRID*               3672               0-4.189764382E+00-1.188800668E+02+
*       2.5000000000E+00               0
GRID*               3673               02.5000000000E+00-1.250000000E+02+
*       3.5000000000E+00               0
GRID*               3674               02.5000000000E+00-1.250000000E+02+
*       2.5000000000E+00               0
GRID*               3675               02.5000000000E+00-1.250000000E+02+
*       1.5000000000E+00               0
GRID*               3676               02.5000000000E+00-1.250000000E+02+
*       5.0000000000E-01               0
GRID*               3677               02.5000000000E+00-1.250000000E+02+
*       -5.000000000E-01               0
GRID*               3678               02.5000000000E+00-1.250000000E+02+
*       -1.500000000E+00               0
GRID*               3679               02.5000000000E+00-1.250000000E+02+
*       -2.500000000E+00               0
GRID*               3680               02.5000000000E+00-1.250000000E+02+
*       -3.500000000E+00               0
GRID*               3681               02.5000000000E+002.5000000000E+01+
*       3.5000000000E+00               0
GRID*               3682               02.5000000000E+002.5000000000E+01+
*       2.5000000000E+00               0
GRID*               3683               02.5000000000E+002.5000000000E+01+
*       1.5000000000E+00               0
GRID*               3684               02.5000000000E+002.5000000000E+01+
*       5.0000000000E-01               0
GRID*               3685               02.5000000000E+002.5000000000E+01+
*       -5.000000000E-01               0
GRID*               3686               02.5000000000E+002.5000000000E+01+
*       -1.500000000E+00               0
GRID*               3687               02.5000000000E+002.5000000000E+01+
*       -2.500000000E+00               0
GRID*               3688               02.5000000000E+002.5000000000E+01+
*       -3.500000000E+00               0
GRID*               3689               0-5.000000000E+00-1.182289794E+02+
*       -2.500000000E+00               0
GRID*               3690               0-5.000000000E+00-1.171708443E+02+
*       -2.500000000E+00               0
GRID*               3691               0-5.000000000E+00-1.161126991E+02+
*       -2.500000000E+00               0
GRID*               3692               0-5.000000000E+00-1.150545388E+02+
*       -2.500000000E+00               0
GRID*               3693               0-5.000000000E+00-1.139963583E+02+
*       -2.500000000E+00               0
GRID*               3694               0-5.000000000E+00-1.129381525E+02+
*       -2.500000000E+00               0
GRID*               3695               0-5.000000000E+00-1.118799164E+02+
*       -2.500000000E+00               0
GRID*               3696               0-5.000000000E+00-1.108216452E+02+
*       -2.500000000E+00               0
GRID*               3697               0-5.000000000E+00-1.097633337E+02+
*       -2.500000000E+00               0
GRID*               3698               0-5.000000000E+00-1.087049770E+02+
*       -2.500000000E+00               0
GRID*               3699               0-5.000000000E+00-1.076465701E+02+
*       -2.500000000E+00               0
GRID*               3700               0-5.000000000E+00-1.065881083E+02+
*       -2.500000000E+00               0
GRID*               3701               0-5.000000000E+00-1.055295866E+02+
*       -2.500000000E+00               0
GRID*               3702               0-5.000000000E+00-1.044710001E+02+
*       -2.500000000E+00               0
GRID*               3703               0-5.000000000E+00-1.034123441E+02+
*       -2.500000000E+00               0
GRID*               3704               0-5.000000000E+00-1.023536137E+02+
*       -2.500000000E+00               0
GRID*               3705               0-5.000000000E+00-1.012948044E+02+
*       -2.500000000E+00               0
GRID*               3706               0-5.000000000E+00-1.002359113E+02+
*       -2.500000000E+00               0
GRID*               3707               0-5.000000000E+00-9.917692988E+01+
*       -2.500000000E+00               0
GRID*               3708               0-5.000000000E+00-9.811785553E+01+
*       -2.500000000E+00               0
GRID*               3709               0-5.000000000E+00-9.705868371E+01+
*       -2.500000000E+00               0
GRID*               3710               0-5.000000000E+00-9.599940995E+01+
*       -2.500000000E+00               0
GRID*               3711               0-5.000000000E+00-9.494002983E+01+
*       -2.500000000E+00               0
GRID*               3712               0-5.000000000E+00-9.388053899E+01+
*       -2.500000000E+00               0
GRID*               3713               0-5.000000000E+00-9.282093313E+01+
*       -2.500000000E+00               0
GRID*               3714               0-5.000000000E+00-9.176120800E+01+
*       -2.500000000E+00               0
GRID*               3715               0-5.000000000E+00-9.070135945E+01+
*       -2.500000000E+00               0
GRID*               3716               0-5.000000000E+00-8.964138337E+01+
*       -2.500000000E+00               0
GRID*               3717               0-5.000000000E+00-8.858127574E+01+
*       -2.500000000E+00               0
GRID*               3718               0-5.000000000E+00-8.752103261E+01+
*       -2.500000000E+00               0
GRID*               3719               0-5.000000000E+00-8.646065008E+01+
*       -2.500000000E+00               0
GRID*               3720               0-5.000000000E+00-8.540012438E+01+
*       -2.500000000E+00               0
GRID*               3721               0-5.000000000E+00-8.433945177E+01+
*       -2.500000000E+00               0
GRID*               3722               0-5.000000000E+00-8.327862862E+01+
*       -2.500000000E+00               0
GRID*               3723               0-5.000000000E+00-8.221765139E+01+
*       -2.500000000E+00               0
GRID*               3724               0-5.000000000E+00-8.115651660E+01+
*       -2.500000000E+00               0
GRID*               3725               0-5.000000000E+00-8.009522088E+01+
*       -2.500000000E+00               0
GRID*               3726               0-5.000000000E+00-7.903376095E+01+
*       -2.500000000E+00               0
GRID*               3727               0-5.000000000E+00-7.797213361E+01+
*       -2.500000000E+00               0
GRID*               3728               0-5.000000000E+00-7.691033578E+01+
*       -2.500000000E+00               0
GRID*               3729               0-5.000000000E+00-7.584836444E+01+
*       -2.500000000E+00               0
GRID*               3730               0-5.000000000E+00-7.478621671E+01+
*       -2.500000000E+00               0
GRID*               3731               0-5.000000000E+00-7.372388977E+01+
*       -2.500000000E+00               0
GRID*               3732               0-5.000000000E+00-7.266138093E+01+
*       -2.500000000E+00               0
GRID*               3733               0-5.000000000E+00-7.159868759E+01+
*       -2.500000000E+00               0
GRID*               3734               0-5.000000000E+00-7.053580727E+01+
*       -2.500000000E+00               0
GRID*               3735               0-5.000000000E+00-6.947273757E+01+
*       -2.500000000E+00               0
GRID*               3736               0-5.000000000E+00-6.840947623E+01+
*       -2.500000000E+00               0
GRID*               3737               0-5.000000000E+00-6.734602108E+01+
*       -2.500000000E+00               0
GRID*               3738               0-5.000000000E+00-6.628237006E+01+
*       -2.500000000E+00               0
GRID*               3739               0-5.000000000E+00-6.521852122E+01+
*       -2.500000000E+00               0
GRID*               3740               0-5.000000000E+00-6.415447275E+01+
*       -2.500000000E+00               0
GRID*               3741               0-5.000000000E+00-6.309022292E+01+
*       -2.500000000E+00               0
GRID*               3742               0-5.000000000E+00-6.202577013E+01+
*       -2.500000000E+00               0
GRID*               3743               0-5.000000000E+00-6.096111291E+01+
*       -2.500000000E+00               0
GRID*               3744               0-5.000000000E+00-5.989624988E+01+
*       -2.500000000E+00               0
GRID*               3745               0-5.000000000E+00-5.883117981E+01+
*       -2.500000000E+00               0
GRID*               3746               0-5.000000000E+00-5.776590156E+01+
*       -2.500000000E+00               0
GRID*               3747               0-5.000000000E+00-5.670041413E+01+
*       -2.500000000E+00               0
GRID*               3748               0-5.000000000E+00-5.563471664E+01+
*       -2.500000000E+00               0
GRID*               3749               0-5.000000000E+00-5.456880832E+01+
*       -2.500000000E+00               0
GRID*               3750               0-5.000000000E+00-5.350268853E+01+
*       -2.500000000E+00               0
GRID*               3751               0-5.000000000E+00-5.243635676E+01+
*       -2.500000000E+00               0
GRID*               3752               0-5.000000000E+00-5.136981260E+01+
*       -2.500000000E+00               0
GRID*               3753               0-5.000000000E+00-5.030305579E+01+
*       -2.500000000E+00               0
GRID*               3754               0-5.000000000E+00-4.923608619E+01+
*       -2.500000000E+00               0
GRID*               3755               0-5.000000000E+00-4.816890376E+01+
*       -2.500000000E+00               0
GRID*               3756               0-5.000000000E+00-4.710150861E+01+
*       -2.500000000E+00               0
GRID*               3757               0-5.000000000E+00-4.603390096E+01+
*       -2.500000000E+00               0
GRID*               3758               0-5.000000000E+00-4.496608118E+01+
*       -2.500000000E+00               0
GRID*               3759               0-5.000000000E+00-4.389804972E+01+
*       -2.500000000E+00               0
GRID*               3760               0-5.000000000E+00-4.282980719E+01+
*       -2.500000000E+00               0
GRID*               3761               0-5.000000000E+00-4.176135432E+01+
*       -2.500000000E+00               0
GRID*               3762               0-5.000000000E+00-4.069269196E+01+
*       -2.500000000E+00               0
GRID*               3763               0-5.000000000E+00-3.962382106E+01+
*       -2.500000000E+00               0
GRID*               3764               0-5.000000000E+00-3.855474273E+01+
*       -2.500000000E+00               0
GRID*               3765               0-5.000000000E+00-3.748545818E+01+
*       -2.500000000E+00               0
GRID*               3766               0-5.000000000E+00-3.641596875E+01+
*       -2.500000000E+00               0
GRID*               3767               0-5.000000000E+00-3.534627590E+01+
*       -2.500000000E+00               0
GRID*               3768               0-5.000000000E+00-3.427638121E+01+
*       -2.500000000E+00               0
GRID*               3769               0-5.000000000E+00-3.320628639E+01+
*       -2.500000000E+00               0
GRID*               3770               0-5.000000000E+00-3.213599324E+01+
*       -2.500000000E+00               0
GRID*               3771               0-5.000000000E+00-3.106550370E+01+
*       -2.500000000E+00               0
GRID*               3772               0-5.000000000E+00-2.999481984E+01+
*       -2.500000000E+00               0
GRID*               3773               0-5.000000000E+00-2.892394381E+01+
*       -2.500000000E+00               0
GRID*               3774               0-5.000000000E+00-2.785287790E+01+
*       -2.500000000E+00               0
GRID*               3775               0-5.000000000E+00-2.678162452E+01+
*       -2.500000000E+00               0
GRID*               3776               0-5.000000000E+00-2.571018616E+01+
*       -2.500000000E+00               0
GRID*               3777               0-5.000000000E+00-2.463856545E+01+
*       -2.500000000E+00               0
GRID*               3778               0-5.000000000E+00-2.356676513E+01+
*       -2.500000000E+00               0
GRID*               3779               0-5.000000000E+00-2.249478801E+01+
*       -2.500000000E+00               0
GRID*               3780               0-5.000000000E+00-2.142263706E+01+
*       -2.500000000E+00               0
GRID*               3781               0-5.000000000E+00-2.035031532E+01+
*       -2.500000000E+00               0
GRID*               3782               0-5.000000000E+00-1.927782593E+01+
*       -2.500000000E+00               0
GRID*               3783               0-5.000000000E+00-1.820517216E+01+
*       -2.500000000E+00               0
GRID*               3784               0-5.000000000E+00-1.713235734E+01+
*       -2.500000000E+00               0
GRID*               3785               0-5.000000000E+00-1.605938493E+01+
*       -2.500000000E+00               0
GRID*               3786               0-5.000000000E+00-1.498625847E+01+
*       -2.500000000E+00               0
GRID*               3787               0-5.000000000E+00-1.391298160E+01+
*       -2.500000000E+00               0
GRID*               3788               0-5.000000000E+00-1.283955804E+01+
*       -2.500000000E+00               0
GRID*               3789               0-5.000000000E+00-1.176599161E+01+
*       -2.500000000E+00               0
GRID*               3790               0-5.000000000E+00-1.069228621E+01+
*       -2.500000000E+00               0
GRID*               3791               0-5.000000000E+00-9.618445824E+00+
*       -2.500000000E+00               0
GRID*               3792               0-5.000000000E+00-8.544474526E+00+
*       -2.500000000E+00               0
GRID*               3793               0-5.000000000E+00-7.470376461E+00+
*       -2.500000000E+00               0
GRID*               3794               0-5.000000000E+00-6.396155853E+00+
*       -2.500000000E+00               0
GRID*               3795               0-5.000000000E+00-5.321817003E+00+
*       -2.500000000E+00               0
GRID*               3796               0-5.000000000E+00-4.247364280E+00+
*       -2.500000000E+00               0
GRID*               3797               0-5.000000000E+00-3.172802125E+00+
*       -2.500000000E+00               0
GRID*               3798               0-5.000000000E+00-2.098135046E+00+
*       -2.500000000E+00               0
GRID*               3799               0-5.000000000E+00-1.023367612E+00+
*       -2.500000000E+00               0
GRID*               3800               0-5.000000000E+005.1495542414E-02+
*       -2.500000000E+00               0
GRID*               3801               0-5.000000000E+001.1264497284E+00+
*       -2.500000000E+00               0
GRID*               3802               0-5.000000000E+002.2014901994E+00+
*       -2.500000000E+00               0
GRID*               3803               0-5.000000000E+003.2766121566E+00+
*       -2.500000000E+00               0
GRID*               3804               0-5.000000000E+004.3518107515E+00+
*       -2.500000000E+00               0
GRID*               3805               0-5.000000000E+005.4270810886E+00+
*       -2.500000000E+00               0
GRID*               3806               0-5.000000000E+006.5024182287E+00+
*       -2.500000000E+00               0
GRID*               3807               0-5.000000000E+007.5778171916E+00+
*       -2.500000000E+00               0
GRID*               3808               0-5.000000000E+008.6532729593E+00+
*       -2.500000000E+00               0
GRID*               3809               0-5.000000000E+009.7287804791E+00+
*       -2.500000000E+00               0
GRID*               3810               0-5.000000000E+001.0804334667E+01+
*       -2.500000000E+00               0
GRID*               3811               0-5.000000000E+001.1879930409E+01+
*       -2.500000000E+00               0
GRID*               3812               0-5.000000000E+001.2955562567E+01+
*       -2.500000000E+00               0
GRID*               3813               0-5.000000000E+001.4031225981E+01+
*       -2.500000000E+00               0
GRID*               3814               0-5.000000000E+001.5106915471E+01+
*       -2.500000000E+00               0
GRID*               3815               0-5.000000000E+001.6182625840E+01+
*       -2.500000000E+00               0
GRID*               3816               0-5.000000000E+001.7258351880E+01+
*       -2.500000000E+00               0
GRID*               3817               0-5.000000000E+001.8334088373E+01+
*       -2.500000000E+00               0
GRID*               3818               04.1889343193E+001.8879493347E+01+
*       -2.500000000E+00               0
GRID*               3819               03.3271752219E+001.8374284646E+01+
*       -2.500000000E+00               0
GRID*               3820               02.4058152580E+001.7986971130E+01+
*       -2.500000000E+00               0
GRID*               3821               01.4420417955E+001.7727375858E+01+
*       -2.500000000E+00               0
GRID*               3822               04.5175856341E-011.7599573000E+01+
*       -2.500000000E+00               0
GRID*               3823               0-5.468794451E-011.7605994672E+01+
*       -2.500000000E+00               0
GRID*               3824               0-1.535384070E+001.7746508653E+01+
*       -2.500000000E+00               0
GRID*               3825               0-2.496481789E+001.8018763910E+01+
*       -2.500000000E+00               0
GRID*               3826               0-3.412686295E+001.8417892340E+01+
*       -2.500000000E+00               0
GRID*               3827               0-4.266830369E+001.8934333670E+01+
*       -2.500000000E+00               0
GRID*               3828               0-4.181414614E+00-1.188743236E+02+
*       -2.500000000E+00               0
GRID*               3829               0-3.320205292E+00-1.183707874E+02+
*       -2.500000000E+00               0
GRID*               3830               0-2.399707857E+00-1.179848762E+02+
*       -2.500000000E+00               0
GRID*               3831               0-1.437030211E+00-1.177263860E+02+
*       -2.500000000E+00               0
GRID*               3832               0-4.479938161E-01-1.175993442E+02+
*       -2.500000000E+00               0
GRID*               3833               05.4930398556E-01-1.176061754E+02+
*       -2.500000000E+00               0
GRID*               3834               01.5364511875E+00-1.177467359E+02+
*       -2.500000000E+00               0
GRID*               3835               02.4962472504E+00-1.180186802E+02+
*       -2.500000000E+00               0
GRID*               3836               03.4112763232E+00-1.184171641E+02+
*       -2.500000000E+00               0
GRID*               3837               04.2644537974E+00-1.189326264E+02+
*       -2.500000000E+00               0
GRID*               3838               05.0000000000E+001.8359538223E+01+
*       -2.500000000E+00               0
GRID*               3839               05.0000000000E+001.7309241018E+01+
*       -2.500000000E+00               0
GRID*               3840               05.0000000000E+001.6258933148E+01+
*       -2.500000000E+00               0
GRID*               3841               05.0000000000E+001.5208609287E+01+
*       -2.500000000E+00               0
GRID*               3842               05.0000000000E+001.4158264117E+01+
*       -2.500000000E+00               0
GRID*               3843               05.0000000000E+001.3107892335E+01+
*       -2.500000000E+00               0
GRID*               3844               05.0000000000E+001.2057488648E+01+
*       -2.500000000E+00               0
GRID*               3845               05.0000000000E+001.1007047784E+01+
*       -2.500000000E+00               0
GRID*               3846               05.0000000000E+009.9565644889E+00+
*       -2.500000000E+00               0
GRID*               3847               05.0000000000E+008.9060335338E+00+
*       -2.500000000E+00               0
GRID*               3848               05.0000000000E+007.8554497143E+00+
*       -2.500000000E+00               0
GRID*               3849               05.0000000000E+006.8048078553E+00+
*       -2.500000000E+00               0
GRID*               3850               05.0000000000E+005.7541028133E+00+
*       -2.500000000E+00               0
GRID*               3851               05.0000000000E+004.7033294793E+00+
*       -2.500000000E+00               0
GRID*               3852               05.0000000000E+003.6524827817E+00+
*       -2.500000000E+00               0
GRID*               3853               05.0000000000E+002.6015576888E+00+
*       -2.500000000E+00               0
GRID*               3854               05.0000000000E+001.5505492118E+00+
*       -2.500000000E+00               0
GRID*               3855               05.0000000000E+004.9945240774E-01+
*       -2.500000000E+00               0
GRID*               3856               05.0000000000E+00-5.517376184E-01+
*       -2.500000000E+00               0
GRID*               3857               05.0000000000E+00-1.603025710E+00+
*       -2.500000000E+00               0
GRID*               3858               05.0000000000E+00-2.654416658E+00+
*       -2.500000000E+00               0
GRID*               3859               05.0000000000E+00-3.705915196E+00+
*       -2.500000000E+00               0
GRID*               3860               05.0000000000E+00-4.757525998E+00+
*       -2.500000000E+00               0
GRID*               3861               05.0000000000E+00-5.809253678E+00+
*       -2.500000000E+00               0
GRID*               3862               05.0000000000E+00-6.861102784E+00+
*       -2.500000000E+00               0
GRID*               3863               05.0000000000E+00-7.913077800E+00+
*       -2.500000000E+00               0
GRID*               3864               05.0000000000E+00-8.965183137E+00+
*       -2.500000000E+00               0
GRID*               3865               05.0000000000E+00-1.001742314E+01+
*       -2.500000000E+00               0
GRID*               3866               05.0000000000E+00-1.106980207E+01+
*       -2.500000000E+00               0
GRID*               3867               05.0000000000E+00-1.212232412E+01+
*       -2.500000000E+00               0
GRID*               3868               05.0000000000E+00-1.317499341E+01+
*       -2.500000000E+00               0
GRID*               3869               05.0000000000E+00-1.422781395E+01+
*       -2.500000000E+00               0
GRID*               3870               05.0000000000E+00-1.528078971E+01+
*       -2.500000000E+00               0
GRID*               3871               05.0000000000E+00-1.633392454E+01+
*       -2.500000000E+00               0
GRID*               3872               05.0000000000E+00-1.738722222E+01+
*       -2.500000000E+00               0
GRID*               3873               05.0000000000E+00-1.844068642E+01+
*       -2.500000000E+00               0
GRID*               3874               05.0000000000E+00-1.949432073E+01+
*       -2.500000000E+00               0
GRID*               3875               05.0000000000E+00-2.054812866E+01+
*       -2.500000000E+00               0
GRID*               3876               05.0000000000E+00-2.160211361E+01+
*       -2.500000000E+00               0
GRID*               3877               05.0000000000E+00-2.265627886E+01+
*       -2.500000000E+00               0
GRID*               3878               05.0000000000E+00-2.371062764E+01+
*       -2.500000000E+00               0
GRID*               3879               05.0000000000E+00-2.476516302E+01+
*       -2.500000000E+00               0
GRID*               3880               05.0000000000E+00-2.581988801E+01+
*       -2.500000000E+00               0
GRID*               3881               05.0000000000E+00-2.687480550E+01+
*       -2.500000000E+00               0
GRID*               3882               05.0000000000E+00-2.792991826E+01+
*       -2.500000000E+00               0
GRID*               3883               05.0000000000E+00-2.898522897E+01+
*       -2.500000000E+00               0
GRID*               3884               05.0000000000E+00-3.004074019E+01+
*       -2.500000000E+00               0
GRID*               3885               05.0000000000E+00-3.109645437E+01+
*       -2.500000000E+00               0
GRID*               3886               05.0000000000E+00-3.215237383E+01+
*       -2.500000000E+00               0
GRID*               3887               05.0000000000E+00-3.320850080E+01+
*       -2.500000000E+00               0
GRID*               3888               05.0000000000E+00-3.426483739E+01+
*       -2.500000000E+00               0
GRID*               3889               05.0000000000E+00-3.532138556E+01+
*       -2.500000000E+00               0
GRID*               3890               05.0000000000E+00-3.637814720E+01+
*       -2.500000000E+00               0
GRID*               3891               05.0000000000E+00-3.743512403E+01+
*       -2.500000000E+00               0
GRID*               3892               05.0000000000E+00-3.849231769E+01+
*       -2.500000000E+00               0
GRID*               3893               05.0000000000E+00-3.954972967E+01+
*       -2.500000000E+00               0
GRID*               3894               05.0000000000E+00-4.060736135E+01+
*       -2.500000000E+00               0
GRID*               3895               05.0000000000E+00-4.166521398E+01+
*       -2.500000000E+00               0
GRID*               3896               05.0000000000E+00-4.272328867E+01+
*       -2.500000000E+00               0
GRID*               3897               05.0000000000E+00-4.378158644E+01+
*       -2.500000000E+00               0
GRID*               3898               05.0000000000E+00-4.484010815E+01+
*       -2.500000000E+00               0
GRID*               3899               05.0000000000E+00-4.589885454E+01+
*       -2.500000000E+00               0
GRID*               3900               05.0000000000E+00-4.695782623E+01+
*       -2.500000000E+00               0
GRID*               3901               05.0000000000E+00-4.801702371E+01+
*       -2.500000000E+00               0
GRID*               3902               05.0000000000E+00-4.907644732E+01+
*       -2.500000000E+00               0
GRID*               3903               05.0000000000E+00-5.013609731E+01+
*       -2.500000000E+00               0
GRID*               3904               05.0000000000E+00-5.119597376E+01+
*       -2.500000000E+00               0
GRID*               3905               05.0000000000E+00-5.225607664E+01+
*       -2.500000000E+00               0
GRID*               3906               05.0000000000E+00-5.331640579E+01+
*       -2.500000000E+00               0
GRID*               3907               05.0000000000E+00-5.437696092E+01+
*       -2.500000000E+00               0
GRID*               3908               05.0000000000E+00-5.543774159E+01+
*       -2.500000000E+00               0
GRID*               3909               05.0000000000E+00-5.649874725E+01+
*       -2.500000000E+00               0
GRID*               3910               05.0000000000E+00-5.755997722E+01+
*       -2.500000000E+00               0
GRID*               3911               05.0000000000E+00-5.862143069E+01+
*       -2.500000000E+00               0
GRID*               3912               05.0000000000E+00-5.968310670E+01+
*       -2.500000000E+00               0
GRID*               3913               05.0000000000E+00-6.074500418E+01+
*       -2.500000000E+00               0
GRID*               3914               05.0000000000E+00-6.180712193E+01+
*       -2.500000000E+00               0
GRID*               3915               05.0000000000E+00-6.286945862E+01+
*       -2.500000000E+00               0
GRID*               3916               05.0000000000E+00-6.393201278E+01+
*       -2.500000000E+00               0
GRID*               3917               05.0000000000E+00-6.499478284E+01+
*       -2.500000000E+00               0
GRID*               3918               05.0000000000E+00-6.605776707E+01+
*       -2.500000000E+00               0
GRID*               3919               05.0000000000E+00-6.712096365E+01+
*       -2.500000000E+00               0
GRID*               3920               05.0000000000E+00-6.818437060E+01+
*       -2.500000000E+00               0
GRID*               3921               05.0000000000E+00-6.924798585E+01+
*       -2.500000000E+00               0
GRID*               3922               05.0000000000E+00-7.031180718E+01+
*       -2.500000000E+00               0
GRID*               3923               05.0000000000E+00-7.137583227E+01+
*       -2.500000000E+00               0
GRID*               3924               05.0000000000E+00-7.244005866E+01+
*       -2.500000000E+00               0
GRID*               3925               05.0000000000E+00-7.350448379E+01+
*       -2.500000000E+00               0
GRID*               3926               05.0000000000E+00-7.456910497E+01+
*       -2.500000000E+00               0
GRID*               3927               05.0000000000E+00-7.563391940E+01+
*       -2.500000000E+00               0
GRID*               3928               05.0000000000E+00-7.669892417E+01+
*       -2.500000000E+00               0
GRID*               3929               05.0000000000E+00-7.776411624E+01+
*       -2.500000000E+00               0
GRID*               3930               05.0000000000E+00-7.882949249E+01+
*       -2.500000000E+00               0
GRID*               3931               05.0000000000E+00-7.989504965E+01+
*       -2.500000000E+00               0
GRID*               3932               05.0000000000E+00-8.096078438E+01+
*       -2.500000000E+00               0
GRID*               3933               05.0000000000E+00-8.202669321E+01+
*       -2.500000000E+00               0
GRID*               3934               05.0000000000E+00-8.309277257E+01+
*       -2.500000000E+00               0
GRID*               3935               05.0000000000E+00-8.415901881E+01+
*       -2.500000000E+00               0
GRID*               3936               05.0000000000E+00-8.522542816E+01+
*       -2.500000000E+00               0
GRID*               3937               05.0000000000E+00-8.629199675E+01+
*       -2.500000000E+00               0
GRID*               3938               05.0000000000E+00-8.735872062E+01+
*       -2.500000000E+00               0
GRID*               3939               05.0000000000E+00-8.842559572E+01+
*       -2.500000000E+00               0
GRID*               3940               05.0000000000E+00-8.949261791E+01+
*       -2.500000000E+00               0
GRID*               3941               05.0000000000E+00-9.055978297E+01+
*       -2.500000000E+00               0
GRID*               3942               05.0000000000E+00-9.162708657E+01+
*       -2.500000000E+00               0
GRID*               3943               05.0000000000E+00-9.269452431E+01+
*       -2.500000000E+00               0
GRID*               3944               05.0000000000E+00-9.376209173E+01+
*       -2.500000000E+00               0
GRID*               3945               05.0000000000E+00-9.482978425E+01+
*       -2.500000000E+00               0
GRID*               3946               05.0000000000E+00-9.589759726E+01+
*       -2.500000000E+00               0
GRID*               3947               05.0000000000E+00-9.696552604E+01+
*       -2.500000000E+00               0
GRID*               3948               05.0000000000E+00-9.803356582E+01+
*       -2.500000000E+00               0
GRID*               3949               05.0000000000E+00-9.910171176E+01+
*       -2.500000000E+00               0
GRID*               3950               05.0000000000E+00-1.001699590E+02+
*       -2.500000000E+00               0
GRID*               3951               05.0000000000E+00-1.012383024E+02+
*       -2.500000000E+00               0
GRID*               3952               05.0000000000E+00-1.023067372E+02+
*       -2.500000000E+00               0
GRID*               3953               05.0000000000E+00-1.033752581E+02+
*       -2.500000000E+00               0
GRID*               3954               05.0000000000E+00-1.044438601E+02+
*       -2.500000000E+00               0
GRID*               3955               05.0000000000E+00-1.055125380E+02+
*       -2.500000000E+00               0
GRID*               3956               05.0000000000E+00-1.065812865E+02+
*       -2.500000000E+00               0
GRID*               3957               05.0000000000E+00-1.076501004E+02+
*       -2.500000000E+00               0
GRID*               3958               05.0000000000E+00-1.087189743E+02+
*       -2.500000000E+00               0
GRID*               3959               05.0000000000E+00-1.097879030E+02+
*       -2.500000000E+00               0
GRID*               3960               05.0000000000E+00-1.108568810E+02+
*       -2.500000000E+00               0
GRID*               3961               05.0000000000E+00-1.119259030E+02+
*       -2.500000000E+00               0
GRID*               3962               05.0000000000E+00-1.129949635E+02+
*       -2.500000000E+00               0
GRID*               3963               05.0000000000E+00-1.140640570E+02+
*       -2.500000000E+00               0
GRID*               3964               05.0000000000E+00-1.151331781E+02+
*       -2.500000000E+00               0
GRID*               3965               05.0000000000E+00-1.162023213E+02+
*       -2.500000000E+00               0
GRID*               3966               05.0000000000E+00-1.172714811E+02+
*       -2.500000000E+00               0
GRID*               3967               05.0000000000E+00-1.183406519E+02+
*       -2.500000000E+00               0
GRID*               3968               05.8242457051E+00-1.202748435E+02+
*       -2.500000000E+00               0
GRID*               3969               06.6382356539E+00-1.215095479E+02+
*       -2.500000000E+00               0
GRID*               3970               07.2752392190E+00-1.231776965E+02+
*       -2.500000000E+00               0
GRID*               3971               07.4990841556E+00-1.251171856E+02+
*       -2.500000000E+00               0
GRID*               3972               07.2148713342E+00-1.270483206E+02+
*       -2.500000000E+00               0
GRID*               3973               06.4420601781E+00-1.288405414E+02+
*       -2.500000000E+00               0
GRID*               3974               05.2328376864E+00-1.303728159E+02+
*       -2.500000000E+00               0
GRID*               3975               03.6686063750E+00-1.315414655E+02+
*       -2.500000000E+00               0
GRID*               3976               01.8546807682E+00-1.322670024E+02+
*       -2.500000000E+00               0
GRID*               3977               0-8.626618662E-02-1.324994213E+02+
*       -2.500000000E+00               0
GRID*               3978               0-2.021301692E+00-1.322224307E+02+
*       -2.500000000E+00               0
GRID*               3979               0-3.817979329E+00-1.314554206E+02+
*       -2.500000000E+00               0
GRID*               3980               0-5.354878202E+00-1.302511878E+02+
*       -2.500000000E+00               0
GRID*               3981               0-6.528546970E+00-1.286916017E+02+
*       -2.500000000E+00               0
GRID*               3982               0-7.259986841E+00-1.268821648E+02+
*       -2.500000000E+00               0
GRID*               3983               0-7.499797879E+00-1.249450276E+02+
*       -2.500000000E+00               0
GRID*               3984               0-7.231453431E+00-1.230110119E+02+
*       -2.500000000E+00               0
GRID*               3985               0-6.566358478E+00-1.213761139E+02+
*       -2.500000000E+00               0
GRID*               3986               0-5.774542443E+00-1.201643452E+02+
*       -2.500000000E+00               0
GRID*               3987               05.0000000000E+00-1.182289806E+02+
*       2.5000000000E+00               0
GRID*               3988               05.0000000000E+00-1.171708467E+02+
*       2.5000000000E+00               0
GRID*               3989               05.0000000000E+00-1.161127028E+02+
*       2.5000000000E+00               0
GRID*               3990               05.0000000000E+00-1.150545436E+02+
*       2.5000000000E+00               0
GRID*               3991               05.0000000000E+00-1.139963643E+02+
*       2.5000000000E+00               0
GRID*               3992               05.0000000000E+00-1.129381597E+02+
*       2.5000000000E+00               0
GRID*               3993               05.0000000000E+00-1.118799249E+02+
*       2.5000000000E+00               0
GRID*               3994               05.0000000000E+00-1.108216548E+02+
*       2.5000000000E+00               0
GRID*               3995               05.0000000000E+00-1.097633445E+02+
*       2.5000000000E+00               0
GRID*               3996               05.0000000000E+00-1.087049889E+02+
*       2.5000000000E+00               0
GRID*               3997               05.0000000000E+00-1.076465833E+02+
*       2.5000000000E+00               0
GRID*               3998               05.0000000000E+00-1.065881226E+02+
*       2.5000000000E+00               0
GRID*               3999               05.0000000000E+00-1.055296020E+02+
*       2.5000000000E+00               0
GRID*               4000               05.0000000000E+00-1.044710167E+02+
*       2.5000000000E+00               0
GRID*               4001               05.0000000000E+00-1.034123618E+02+
*       2.5000000000E+00               0
GRID*               4002               05.0000000000E+00-1.023536326E+02+
*       2.5000000000E+00               0
GRID*               4003               05.0000000000E+00-1.012948244E+02+
*       2.5000000000E+00               0
GRID*               4004               05.0000000000E+00-1.002359324E+02+
*       2.5000000000E+00               0
GRID*               4005               05.0000000000E+00-9.917695207E+01+
*       2.5000000000E+00               0
GRID*               4006               05.0000000000E+00-9.811787879E+01+
*       2.5000000000E+00               0
GRID*               4007               05.0000000000E+00-9.705870804E+01+
*       2.5000000000E+00               0
GRID*               4008               05.0000000000E+00-9.599943534E+01+
*       2.5000000000E+00               0
GRID*               4009               05.0000000000E+00-9.494005626E+01+
*       2.5000000000E+00               0
GRID*               4010               05.0000000000E+00-9.388056644E+01+
*       2.5000000000E+00               0
GRID*               4011               05.0000000000E+00-9.282096158E+01+
*       2.5000000000E+00               0
GRID*               4012               05.0000000000E+00-9.176123745E+01+
*       2.5000000000E+00               0
GRID*               4013               05.0000000000E+00-9.070138987E+01+
*       2.5000000000E+00               0
GRID*               4014               05.0000000000E+00-8.964141475E+01+
*       2.5000000000E+00               0
GRID*               4015               05.0000000000E+00-8.858130806E+01+
*       2.5000000000E+00               0
GRID*               4016               05.0000000000E+00-8.752106585E+01+
*       2.5000000000E+00               0
GRID*               4017               05.0000000000E+00-8.646068422E+01+
*       2.5000000000E+00               0
GRID*               4018               05.0000000000E+00-8.540015940E+01+
*       2.5000000000E+00               0
GRID*               4019               05.0000000000E+00-8.433948765E+01+
*       2.5000000000E+00               0
GRID*               4020               05.0000000000E+00-8.327866535E+01+
*       2.5000000000E+00               0
GRID*               4021               05.0000000000E+00-8.221768893E+01+
*       2.5000000000E+00               0
GRID*               4022               05.0000000000E+00-8.115655494E+01+
*       2.5000000000E+00               0
GRID*               4023               05.0000000000E+00-8.009526000E+01+
*       2.5000000000E+00               0
GRID*               4024               05.0000000000E+00-7.903380082E+01+
*       2.5000000000E+00               0
GRID*               4025               05.0000000000E+00-7.797217422E+01+
*       2.5000000000E+00               0
GRID*               4026               05.0000000000E+00-7.691037709E+01+
*       2.5000000000E+00               0
GRID*               4027               05.0000000000E+00-7.584840644E+01+
*       2.5000000000E+00               0
GRID*               4028               05.0000000000E+00-7.478625936E+01+
*       2.5000000000E+00               0
GRID*               4029               05.0000000000E+00-7.372393306E+01+
*       2.5000000000E+00               0
GRID*               4030               05.0000000000E+00-7.266142483E+01+
*       2.5000000000E+00               0
GRID*               4031               05.0000000000E+00-7.159873208E+01+
*       2.5000000000E+00               0
GRID*               4032               05.0000000000E+00-7.053585232E+01+
*       2.5000000000E+00               0
GRID*               4033               05.0000000000E+00-6.947278315E+01+
*       2.5000000000E+00               0
GRID*               4034               05.0000000000E+00-6.840952232E+01+
*       2.5000000000E+00               0
GRID*               4035               05.0000000000E+00-6.734606765E+01+
*       2.5000000000E+00               0
GRID*               4036               05.0000000000E+00-6.628241708E+01+
*       2.5000000000E+00               0
GRID*               4037               05.0000000000E+00-6.521856867E+01+
*       2.5000000000E+00               0
GRID*               4038               05.0000000000E+00-6.415452059E+01+
*       2.5000000000E+00               0
GRID*               4039               05.0000000000E+00-6.309027113E+01+
*       2.5000000000E+00               0
GRID*               4040               05.0000000000E+00-6.202581869E+01+
*       2.5000000000E+00               0
GRID*               4041               05.0000000000E+00-6.096116178E+01+
*       2.5000000000E+00               0
GRID*               4042               05.0000000000E+00-5.989629904E+01+
*       2.5000000000E+00               0
GRID*               4043               05.0000000000E+00-5.883122923E+01+
*       2.5000000000E+00               0
GRID*               4044               05.0000000000E+00-5.776595121E+01+
*       2.5000000000E+00               0
GRID*               4045               05.0000000000E+00-5.670046398E+01+
*       2.5000000000E+00               0
GRID*               4046               05.0000000000E+00-5.563476666E+01+
*       2.5000000000E+00               0
GRID*               4047               05.0000000000E+00-5.456885848E+01+
*       2.5000000000E+00               0
GRID*               4048               05.0000000000E+00-5.350273881E+01+
*       2.5000000000E+00               0
GRID*               4049               05.0000000000E+00-5.243640711E+01+
*       2.5000000000E+00               0
GRID*               4050               05.0000000000E+00-5.136986301E+01+
*       2.5000000000E+00               0
GRID*               4051               05.0000000000E+00-5.030310623E+01+
*       2.5000000000E+00               0
GRID*               4052               05.0000000000E+00-4.923613662E+01+
*       2.5000000000E+00               0
GRID*               4053               05.0000000000E+00-4.816895415E+01+
*       2.5000000000E+00               0
GRID*               4054               05.0000000000E+00-4.710155894E+01+
*       2.5000000000E+00               0
GRID*               4055               05.0000000000E+00-4.603395120E+01+
*       2.5000000000E+00               0
GRID*               4056               05.0000000000E+00-4.496613129E+01+
*       2.5000000000E+00               0
GRID*               4057               05.0000000000E+00-4.389809968E+01+
*       2.5000000000E+00               0
GRID*               4058               05.0000000000E+00-4.282985698E+01+
*       2.5000000000E+00               0
GRID*               4059               05.0000000000E+00-4.176140390E+01+
*       2.5000000000E+00               0
GRID*               4060               05.0000000000E+00-4.069274129E+01+
*       2.5000000000E+00               0
GRID*               4061               05.0000000000E+00-3.962387012E+01+
*       2.5000000000E+00               0
GRID*               4062               05.0000000000E+00-3.855479150E+01+
*       2.5000000000E+00               0
GRID*               4063               05.0000000000E+00-3.748550662E+01+
*       2.5000000000E+00               0
GRID*               4064               05.0000000000E+00-3.641601684E+01+
*       2.5000000000E+00               0
GRID*               4065               05.0000000000E+00-3.534632361E+01+
*       2.5000000000E+00               0
GRID*               4066               05.0000000000E+00-3.427642851E+01+
*       2.5000000000E+00               0
GRID*               4067               05.0000000000E+00-3.320633324E+01+
*       2.5000000000E+00               0
GRID*               4068               05.0000000000E+00-3.213603963E+01+
*       2.5000000000E+00               0
GRID*               4069               05.0000000000E+00-3.106554960E+01+
*       2.5000000000E+00               0
GRID*               4070               05.0000000000E+00-2.999486521E+01+
*       2.5000000000E+00               0
GRID*               4071               05.0000000000E+00-2.892398864E+01+
*       2.5000000000E+00               0
GRID*               4072               05.0000000000E+00-2.785292216E+01+
*       2.5000000000E+00               0
GRID*               4073               05.0000000000E+00-2.678166817E+01+
*       2.5000000000E+00               0
GRID*               4074               05.0000000000E+00-2.571022919E+01+
*       2.5000000000E+00               0
GRID*               4075               05.0000000000E+00-2.463860783E+01+
*       2.5000000000E+00               0
GRID*               4076               05.0000000000E+00-2.356680683E+01+
*       2.5000000000E+00               0
GRID*               4077               05.0000000000E+00-2.249482902E+01+
*       2.5000000000E+00               0
GRID*               4078               05.0000000000E+00-2.142267734E+01+
*       2.5000000000E+00               0
GRID*               4079               05.0000000000E+00-2.035035485E+01+
*       2.5000000000E+00               0
GRID*               4080               05.0000000000E+00-1.927786469E+01+
*       2.5000000000E+00               0
GRID*               4081               05.0000000000E+00-1.820521011E+01+
*       2.5000000000E+00               0
GRID*               4082               05.0000000000E+00-1.713239448E+01+
*       2.5000000000E+00               0
GRID*               4083               05.0000000000E+00-1.605942123E+01+
*       2.5000000000E+00               0
GRID*               4084               05.0000000000E+00-1.498629391E+01+
*       2.5000000000E+00               0
GRID*               4085               05.0000000000E+00-1.391301615E+01+
*       2.5000000000E+00               0
GRID*               4086               05.0000000000E+00-1.283959169E+01+
*       2.5000000000E+00               0
GRID*               4087               05.0000000000E+00-1.176602434E+01+
*       2.5000000000E+00               0
GRID*               4088               05.0000000000E+00-1.069231799E+01+
*       2.5000000000E+00               0
GRID*               4089               05.0000000000E+00-9.618476648E+00+
*       2.5000000000E+00               0
GRID*               4090               05.0000000000E+00-8.544504370E+00+
*       2.5000000000E+00               0
GRID*               4091               05.0000000000E+00-7.470405307E+00+
*       2.5000000000E+00               0
GRID*               4092               05.0000000000E+00-6.396183684E+00+
*       2.5000000000E+00               0
GRID*               4093               05.0000000000E+00-5.321843802E+00+
*       2.5000000000E+00               0
GRID*               4094               05.0000000000E+00-4.247390032E+00+
*       2.5000000000E+00               0
GRID*               4095               05.0000000000E+00-3.172826814E+00+
*       2.5000000000E+00               0
GRID*               4096               05.0000000000E+00-2.098158657E+00+
*       2.5000000000E+00               0
GRID*               4097               05.0000000000E+00-1.023390132E+00+
*       2.5000000000E+00               0
GRID*               4098               05.0000000000E+005.1474128715E-02+
*       2.5000000000E+00               0
GRID*               4099               05.0000000000E+001.1264294328E+00+
*       2.5000000000E+00               0
GRID*               4100               05.0000000000E+002.2014710341E+00+
*       2.5000000000E+00               0
GRID*               4101               05.0000000000E+003.2765941330E+00+
*       2.5000000000E+00               0
GRID*               4102               05.0000000000E+004.3517938804E+00+
*       2.5000000000E+00               0
GRID*               4103               05.0000000000E+005.4270653800E+00+
*       2.5000000000E+00               0
GRID*               4104               05.0000000000E+006.5024036920E+00+
*       2.5000000000E+00               0
GRID*               4105               05.0000000000E+007.5778038355E+00+
*       2.5000000000E+00               0
GRID*               4106               05.0000000000E+008.6532607919E+00+
*       2.5000000000E+00               0
GRID*               4107               05.0000000000E+009.7287695076E+00+
*       2.5000000000E+00               0
GRID*               4108               05.0000000000E+001.0804324898E+01+
*       2.5000000000E+00               0
GRID*               4109               05.0000000000E+001.1879921848E+01+
*       2.5000000000E+00               0
GRID*               4110               05.0000000000E+001.2955555220E+01+
*       2.5000000000E+00               0
GRID*               4111               05.0000000000E+001.4031219852E+01+
*       2.5000000000E+00               0
GRID*               4112               05.0000000000E+001.5106910563E+01+
*       2.5000000000E+00               0
GRID*               4113               05.0000000000E+001.6182622156E+01+
*       2.5000000000E+00               0
GRID*               4114               05.0000000000E+001.7258349423E+01+
*       2.5000000000E+00               0
GRID*               4115               05.0000000000E+001.8334087144E+01+
*       2.5000000000E+00               0
GRID*               4116               0-4.188934411E+001.8879493411E+01+
*       2.5000000000E+00               0
GRID*               4117               0-3.327175420E+001.8374284746E+01+
*       2.5000000000E+00               0
GRID*               4118               0-2.405815572E+001.7986971237E+01+
*       2.5000000000E+00               0
GRID*               4119               0-1.442042228E+001.7727375944E+01+
*       2.5000000000E+00               0
GRID*               4120               0-4.517591133E-011.7599573034E+01+
*       2.5000000000E+00               0
GRID*               4121               05.4687878630E-011.7605994623E+01+
*       2.5000000000E+00               0
GRID*               4122               01.5353833167E+001.7746508493E+01+
*       2.5000000000E+00               0
GRID*               4123               02.4964809599E+001.8018763614E+01+
*       2.5000000000E+00               0
GRID*               4124               03.4126854167E+001.8417891884E+01+
*       2.5000000000E+00               0
GRID*               4125               04.2668294774E+001.8934333028E+01+
*       2.5000000000E+00               0
GRID*               4126               0-5.000000000E+001.8359393043E+01+
*       2.5000000000E+00               0
GRID*               4127               0-5.000000000E+001.7308955824E+01+
*       2.5000000000E+00               0
GRID*               4128               0-5.000000000E+001.6258518268E+01+
*       2.5000000000E+00               0
GRID*               4129               0-5.000000000E+001.5208080208E+01+
*       2.5000000000E+00               0
GRID*               4130               0-5.000000000E+001.4157641475E+01+
*       2.5000000000E+00               0
GRID*               4131               0-5.000000000E+001.3107201903E+01+
*       2.5000000000E+00               0
GRID*               4132               0-5.000000000E+001.2056761324E+01+
*       2.5000000000E+00               0
GRID*               4133               0-5.000000000E+001.1006319572E+01+
*       2.5000000000E+00               0
GRID*               4134               0-5.000000000E+009.9558764805E+00+
*       2.5000000000E+00               0
GRID*               4135               0-5.000000000E+008.9054318857E+00+
*       2.5000000000E+00               0
GRID*               4136               0-5.000000000E+007.8549856232E+00+
*       2.5000000000E+00               0
GRID*               4137               0-5.000000000E+006.8045375297E+00+
*       2.5000000000E+00               0
GRID*               4138               0-5.000000000E+005.7540874433E+00+
*       2.5000000000E+00               0
GRID*               4139               0-5.000000000E+004.7036352028E+00+
*       2.5000000000E+00               0
GRID*               4140               0-5.000000000E+003.6531806486E+00+
*       2.5000000000E+00               0
GRID*               4141               0-5.000000000E+002.6027236222E+00+
*       2.5000000000E+00               0
GRID*               4142               0-5.000000000E+001.5522639665E+00+
*       2.5000000000E+00               0
GRID*               4143               0-5.000000000E+005.0180152608E-01+
*       2.5000000000E+00               0
GRID*               4144               0-5.000000000E+00-5.486638532E-01+
*       2.5000000000E+00               0
GRID*               4145               0-5.000000000E+00-1.599132324E+00+
*       2.5000000000E+00               0
GRID*               4146               0-5.000000000E+00-2.649604036E+00+
*       2.5000000000E+00               0
GRID*               4147               0-5.000000000E+00-3.700079138E+00+
*       2.5000000000E+00               0
GRID*               4148               0-5.000000000E+00-4.750557778E+00+
*       2.5000000000E+00               0
GRID*               4149               0-5.000000000E+00-5.801040100E+00+
*       2.5000000000E+00               0
GRID*               4150               0-5.000000000E+00-6.851526246E+00+
*       2.5000000000E+00               0
GRID*               4151               0-5.000000000E+00-7.902016358E+00+
*       2.5000000000E+00               0
GRID*               4152               0-5.000000000E+00-8.952510574E+00+
*       2.5000000000E+00               0
GRID*               4153               0-5.000000000E+00-1.000300903E+01+
*       2.5000000000E+00               0
GRID*               4154               0-5.000000000E+00-1.105351186E+01+
*       2.5000000000E+00               0
GRID*               4155               0-5.000000000E+00-1.210401919E+01+
*       2.5000000000E+00               0
GRID*               4156               0-5.000000000E+00-1.315453116E+01+
*       2.5000000000E+00               0
GRID*               4157               0-5.000000000E+00-1.420504788E+01+
*       2.5000000000E+00               0
GRID*               4158               0-5.000000000E+00-1.525556949E+01+
*       2.5000000000E+00               0
GRID*               4159               0-5.000000000E+00-1.630609610E+01+
*       2.5000000000E+00               0
GRID*               4160               0-5.000000000E+00-1.735662784E+01+
*       2.5000000000E+00               0
GRID*               4161               0-5.000000000E+00-1.840716480E+01+
*       2.5000000000E+00               0
GRID*               4162               0-5.000000000E+00-1.945770712E+01+
*       2.5000000000E+00               0
GRID*               4163               0-5.000000000E+00-2.050825489E+01+
*       2.5000000000E+00               0
GRID*               4164               0-5.000000000E+00-2.155880822E+01+
*       2.5000000000E+00               0
GRID*               4165               0-5.000000000E+00-2.260936721E+01+
*       2.5000000000E+00               0
GRID*               4166               0-5.000000000E+00-2.365993197E+01+
*       2.5000000000E+00               0
GRID*               4167               0-5.000000000E+00-2.471050259E+01+
*       2.5000000000E+00               0
GRID*               4168               0-5.000000000E+00-2.576107917E+01+
*       2.5000000000E+00               0
GRID*               4169               0-5.000000000E+00-2.681166178E+01+
*       2.5000000000E+00               0
GRID*               4170               0-5.000000000E+00-2.786225052E+01+
*       2.5000000000E+00               0
GRID*               4171               0-5.000000000E+00-2.891284548E+01+
*       2.5000000000E+00               0
GRID*               4172               0-5.000000000E+00-2.996344672E+01+
*       2.5000000000E+00               0
GRID*               4173               0-5.000000000E+00-3.101405432E+01+
*       2.5000000000E+00               0
GRID*               4174               0-5.000000000E+00-3.206466837E+01+
*       2.5000000000E+00               0
GRID*               4175               0-5.000000000E+00-3.311528892E+01+
*       2.5000000000E+00               0
GRID*               4176               0-5.000000000E+00-3.416591604E+01+
*       2.5000000000E+00               0
GRID*               4177               0-5.000000000E+00-3.521654979E+01+
*       2.5000000000E+00               0
GRID*               4178               0-5.000000000E+00-3.626719022E+01+
*       2.5000000000E+00               0
GRID*               4179               0-5.000000000E+00-3.731783740E+01+
*       2.5000000000E+00               0
GRID*               4180               0-5.000000000E+00-3.836849137E+01+
*       2.5000000000E+00               0
GRID*               4181               0-5.000000000E+00-3.941915217E+01+
*       2.5000000000E+00               0
GRID*               4182               0-5.000000000E+00-4.046981985E+01+
*       2.5000000000E+00               0
GRID*               4183               0-5.000000000E+00-4.152049445E+01+
*       2.5000000000E+00               0
GRID*               4184               0-5.000000000E+00-4.257117599E+01+
*       2.5000000000E+00               0
GRID*               4185               0-5.000000000E+00-4.362186452E+01+
*       2.5000000000E+00               0
GRID*               4186               0-5.000000000E+00-4.467256005E+01+
*       2.5000000000E+00               0
GRID*               4187               0-5.000000000E+00-4.572326261E+01+
*       2.5000000000E+00               0
GRID*               4188               0-5.000000000E+00-4.677397221E+01+
*       2.5000000000E+00               0
GRID*               4189               0-5.000000000E+00-4.782468887E+01+
*       2.5000000000E+00               0
GRID*               4190               0-5.000000000E+00-4.887541261E+01+
*       2.5000000000E+00               0
GRID*               4191               0-5.000000000E+00-4.992614342E+01+
*       2.5000000000E+00               0
GRID*               4192               0-5.000000000E+00-5.097688130E+01+
*       2.5000000000E+00               0
GRID*               4193               0-5.000000000E+00-5.202762627E+01+
*       2.5000000000E+00               0
GRID*               4194               0-5.000000000E+00-5.307837830E+01+
*       2.5000000000E+00               0
GRID*               4195               0-5.000000000E+00-5.412913739E+01+
*       2.5000000000E+00               0
GRID*               4196               0-5.000000000E+00-5.517990353E+01+
*       2.5000000000E+00               0
GRID*               4197               0-5.000000000E+00-5.623067670E+01+
*       2.5000000000E+00               0
GRID*               4198               0-5.000000000E+00-5.728145687E+01+
*       2.5000000000E+00               0
GRID*               4199               0-5.000000000E+00-5.833224403E+01+
*       2.5000000000E+00               0
GRID*               4200               0-5.000000000E+00-5.938303814E+01+
*       2.5000000000E+00               0
GRID*               4201               0-5.000000000E+00-6.043383916E+01+
*       2.5000000000E+00               0
GRID*               4202               0-5.000000000E+00-6.148464706E+01+
*       2.5000000000E+00               0
GRID*               4203               0-5.000000000E+00-6.253546180E+01+
*       2.5000000000E+00               0
GRID*               4204               0-5.000000000E+00-6.358628333E+01+
*       2.5000000000E+00               0
GRID*               4205               0-5.000000000E+00-6.463711161E+01+
*       2.5000000000E+00               0
GRID*               4206               0-5.000000000E+00-6.568794658E+01+
*       2.5000000000E+00               0
GRID*               4207               0-5.000000000E+00-6.673878818E+01+
*       2.5000000000E+00               0
GRID*               4208               0-5.000000000E+00-6.778963635E+01+
*       2.5000000000E+00               0
GRID*               4209               0-5.000000000E+00-6.884049103E+01+
*       2.5000000000E+00               0
GRID*               4210               0-5.000000000E+00-6.989135214E+01+
*       2.5000000000E+00               0
GRID*               4211               0-5.000000000E+00-7.094221963E+01+
*       2.5000000000E+00               0
GRID*               4212               0-5.000000000E+00-7.199309341E+01+
*       2.5000000000E+00               0
GRID*               4213               0-5.000000000E+00-7.304397341E+01+
*       2.5000000000E+00               0
GRID*               4214               0-5.000000000E+00-7.409485953E+01+
*       2.5000000000E+00               0
GRID*               4215               0-5.000000000E+00-7.514575170E+01+
*       2.5000000000E+00               0
GRID*               4216               0-5.000000000E+00-7.619664983E+01+
*       2.5000000000E+00               0
GRID*               4217               0-5.000000000E+00-7.724755382E+01+
*       2.5000000000E+00               0
GRID*               4218               0-5.000000000E+00-7.829846358E+01+
*       2.5000000000E+00               0
GRID*               4219               0-5.000000000E+00-7.934937900E+01+
*       2.5000000000E+00               0
GRID*               4220               0-5.000000000E+00-8.040029999E+01+
*       2.5000000000E+00               0
GRID*               4221               0-5.000000000E+00-8.145122645E+01+
*       2.5000000000E+00               0
GRID*               4222               0-5.000000000E+00-8.250215825E+01+
*       2.5000000000E+00               0
GRID*               4223               0-5.000000000E+00-8.355309529E+01+
*       2.5000000000E+00               0
GRID*               4224               0-5.000000000E+00-8.460403746E+01+
*       2.5000000000E+00               0
GRID*               4225               0-5.000000000E+00-8.565498463E+01+
*       2.5000000000E+00               0
GRID*               4226               0-5.000000000E+00-8.670593669E+01+
*       2.5000000000E+00               0
GRID*               4227               0-5.000000000E+00-8.775689352E+01+
*       2.5000000000E+00               0
GRID*               4228               0-5.000000000E+00-8.880785498E+01+
*       2.5000000000E+00               0
GRID*               4229               0-5.000000000E+00-8.985882094E+01+
*       2.5000000000E+00               0
GRID*               4230               0-5.000000000E+00-9.090979129E+01+
*       2.5000000000E+00               0
GRID*               4231               0-5.000000000E+00-9.196076588E+01+
*       2.5000000000E+00               0
GRID*               4232               0-5.000000000E+00-9.301174458E+01+
*       2.5000000000E+00               0
GRID*               4233               0-5.000000000E+00-9.406272724E+01+
*       2.5000000000E+00               0
GRID*               4234               0-5.000000000E+00-9.511371374E+01+
*       2.5000000000E+00               0
GRID*               4235               0-5.000000000E+00-9.616470392E+01+
*       2.5000000000E+00               0
GRID*               4236               0-5.000000000E+00-9.721569764E+01+
*       2.5000000000E+00               0
GRID*               4237               0-5.000000000E+00-9.826669476E+01+
*       2.5000000000E+00               0
GRID*               4238               0-5.000000000E+00-9.931769511E+01+
*       2.5000000000E+00               0
GRID*               4239               0-5.000000000E+00-1.003686986E+02+
*       2.5000000000E+00               0
GRID*               4240               0-5.000000000E+00-1.014197050E+02+
*       2.5000000000E+00               0
GRID*               4241               0-5.000000000E+00-1.024707141E+02+
*       2.5000000000E+00               0
GRID*               4242               0-5.000000000E+00-1.035217260E+02+
*       2.5000000000E+00               0
GRID*               4243               0-5.000000000E+00-1.045727403E+02+
*       2.5000000000E+00               0
GRID*               4244               0-5.000000000E+00-1.056237569E+02+
*       2.5000000000E+00               0
GRID*               4245               0-5.000000000E+00-1.066747756E+02+
*       2.5000000000E+00               0
GRID*               4246               0-5.000000000E+00-1.077257964E+02+
*       2.5000000000E+00               0
GRID*               4247               0-5.000000000E+00-1.087768190E+02+
*       2.5000000000E+00               0
GRID*               4248               0-5.000000000E+00-1.098278432E+02+
*       2.5000000000E+00               0
GRID*               4249               0-5.000000000E+00-1.108788690E+02+
*       2.5000000000E+00               0
GRID*               4250               0-5.000000000E+00-1.119298961E+02+
*       2.5000000000E+00               0
GRID*               4251               0-5.000000000E+00-1.129809244E+02+
*       2.5000000000E+00               0
GRID*               4252               0-5.000000000E+00-1.140319537E+02+
*       2.5000000000E+00               0
GRID*               4253               0-5.000000000E+00-1.150829838E+02+
*       2.5000000000E+00               0
GRID*               4254               0-5.000000000E+00-1.161340146E+02+
*       2.5000000000E+00               0
GRID*               4255               0-5.000000000E+00-1.171850459E+02+
*       2.5000000000E+00               0
GRID*               4256               0-5.000000000E+00-1.182360776E+02+
*       2.5000000000E+00               0
GRID*               4257               0-5.000000000E+00-1.192871094E+02+
*       1.5007176031E+00               0
GRID*               4258               0-5.000000000E+00-1.192871094E+02+
*       5.0116130553E-01               0
GRID*               4259               0-5.000000000E+00-1.192871094E+02+
*       -4.988384482E-01               0
GRID*               4260               0-5.000000000E+00-1.192871094E+02+
*       -1.499281998E+00               0
GRID*               4261               05.0000000000E+00-1.193851100E+02+
*       -1.492893865E+00               0
GRID*               4262               05.0000000000E+00-1.193604589E+02+
*       -4.885215368E-01               0
GRID*               4263               05.0000000000E+00-1.193359158E+02+
*       5.1145445496E-01               0
GRID*               4264               05.0000000000E+00-1.193114797E+02+
*       1.5070672891E+00               0
GRID*               4265               0-5.777120429E+00-1.201678563E+02+
*       2.5000000000E+00               0
GRID*               4266               0-6.571814280E+00-1.213860194E+02+
*       2.5000000000E+00               0
GRID*               4267               0-7.236717113E+00-1.230302506E+02+
*       2.5000000000E+00               0
GRID*               4268               0-7.499954123E+00-1.249739079E+02+
*       2.5000000000E+00               0
GRID*               4269               0-7.250396169E+00-1.269187795E+02+
*       2.5000000000E+00               0
GRID*               4270               0-6.505371248E+00-1.287322919E+02+
*       2.5000000000E+00               0
GRID*               4271               0-5.315651085E+00-1.302908936E+02+
*       2.5000000000E+00               0
GRID*               4272               0-3.762049346E+00-1.314881740E+02+
*       2.5000000000E+00               0
GRID*               4273               0-1.950107526E+00-1.322419769E+02+
*       2.5000000000E+00               0
GRID*               4274               0-3.435975955E-03-1.324999154E+02+
*       2.5000000000E+00               0
GRID*               4275               01.9434731513E+00-1.322437601E+02+
*       2.5000000000E+00               0
GRID*               4276               03.7561080353E+00-1.314916154E+02+
*       2.5000000000E+00               0
GRID*               4277               05.3108076099E+00-1.302957554E+02+
*       2.5000000000E+00               0
GRID*               4278               06.5019548709E+00-1.287382405E+02+
*       2.5000000000E+00               0
GRID*               4279               07.2486387890E+00-1.269254081E+02+
*       2.5000000000E+00               0
GRID*               4280               07.4999748785E+00-1.249807636E+02+
*       2.5000000000E+00               0
GRID*               4281               07.2385167228E+00-1.230368748E+02+
*       2.5000000000E+00               0
GRID*               4282               06.5742814186E+00-1.213905103E+02+
*       2.5000000000E+00               0
GRID*               4283               05.7783666013E+00-1.201695547E+02+
*       2.5000000000E+00               0
GRID*               4284               06.7071065903E+00-1.250000000E+02+
*       -2.792893171E+00               0
GRID*               4285               06.7071065903E+002.5000000000E+01+
*       -2.792893171E+00               0
GRID*               4286               05.0000000000E+00-1.250000000E+02+
*       -4.500000000E+00               0
GRID*               4287               05.0000000000E+00-1.250000000E+02+
*       4.5000000000E+00               0
GRID*               4288               0-5.000000000E+001.9409830093E+01+
*       -2.500000000E+00               0
GRID*               4289               0-5.000000000E+001.9409830093E+01+
*       2.5000000000E+00               0
GRID*               4290               05.0000000000E+002.5000000000E+01+
*       -4.500000000E+00               0
GRID*               4291               05.0000000000E+002.5000000000E+01+
*       4.5000000000E+00               0
GRID*               4292               02.5000000000E+00-1.250000000E+02+
*       -4.500000000E+00               0
GRID*               4293               02.5000000000E+00-1.250000000E+02+
*       4.5000000000E+00               0
GRID*               4294               02.5000000000E+002.5000000000E+01+
*       -4.500000000E+00               0
GRID*               4295               02.5000000000E+002.5000000000E+01+
*       4.5000000000E+00               0
GRID*               4296               05.0000000000E+001.9409830093E+01+
*       -2.500000000E+00               0
GRID*               4297               05.0000000000E+001.9409830093E+01+
*       2.5000000000E+00               0
GRID*               4298               0-6.707106590E+00-1.250000000E+02+
*       2.7928931713E+00               0
GRID*               4299               0-6.707106590E+002.5000000000E+01+
*       2.7928931713E+00               0
GRID*               4300               05.0000000000E+00-1.192871094E+02+
*       2.5000000000E+00               0
GRID*               4301               0-5.000000000E+00-1.192871094E+02+
*       2.5000000000E+00               0
GRID*               4302               0-5.000000000E+00-1.192871094E+02+
*       -2.500000000E+00               0
GRID*               4303               05.0000000000E+00-1.194098282E+02+
*       -2.500000000E+00               0
$*
$* ELEMENT CARDS
$*
$*  Mesh Collector: Solid(1)
$*  Mesh: 3d_mesh(1)
CTETRA         1       1       1       2       3       4
CTETRA         2       1       5       6       7       4
CTETRA         3       1       1       3       8       4
CTETRA         4       1       9      10       8       4
CTETRA         5       1       9       8       3       4
CTETRA         6       1      11      12      13      14
CTETRA         7       1      15      16      17      14
CTETRA         8       1      18      12      11      14
CTETRA         9       1      19      20      17      14
CTETRA        10       1      18      21      12      14
CTETRA        11       1      20      22      23      14
CTETRA        12       1      24      25      26      27
CTETRA        13       1      28      29      25      27
CTETRA        14       1      28      30      31      27
CTETRA        15       1      26      32      30      27
CTETRA        16       1      33      30      32      27
CTETRA        17       1    1217    1219      34      35
CTETRA        18       1    1704    1720    1719      36
CTETRA        19       1    1216    3075      37      35
CTETRA        20       1    1216      37    1218      35
CTETRA        21       1    1880    1881    1896      38
CTETRA        22       1    1215    1217      39      35
CTETRA        23       1      40      41      42      35
CTETRA        24       1    3472    2301    2303      43
CTETRA        25       1    3049      41      37      35
CTETRA        26       1    3057      39      42      35
CTETRA        27       1      44      45      46      47
CTETRA        28       1      28      29      31      47
CTETRA        29       1      28      31      48      47
CTETRA        30       1      49      50      51      47
CTETRA        31       1    3680    1693    3493    1542
CTETRA        32       1      48      51      50      47
CTETRA        33       1    4280    3602    3601      52
CTETRA        34       1      53      50      44      47
CTETRA        35       1      49      45      50      47
CTETRA        36       1      53      48      50      47
CTETRA        37       1    1868    1869    1884      54
CTETRA        38       1    3371    3372    1175      55
CTETRA        39       1    1884      54      56      13
CTETRA        40       1    4279    3604    3603      57
CTETRA        41       1      58      59      12      13
CTETRA        42       1      54      11      13      14
CTETRA        43       1      60      11      12      13
CTETRA        44       1    3363    1171      61      62
CTETRA        45       1    1884      56      60      13
CTETRA        46       1    3516    3517    1807    1569
CTETRA        47       1      63      17      64      65
CTETRA        48       1      63      64      66      65
CTETRA        49       1      23      65      17      14
CTETRA        50       1      67      68      69      70
CTETRA        51       1      11      71      66      14
CTETRA        52       1      63      66      72      65
CTETRA        53       1      71      17      73      65
CTETRA        54       1      74      75      76      77
CTETRA        55       1    3503    3504    1788    1549
CTETRA        56       1    1744    1759      78      79
CTETRA        57       1    3565    1659    3634    1661
CTETRA        58       1      80      81      82      77
CTETRA        59       1    1744      78    1745      79
CTETRA        60       1    1745      78      82      77
CTETRA        61       1    3532    1909    1910    1588
CTETRA        62       1      83      84      85      86
CTETRA        63       1      87      88      89      86
CTETRA        64       1    3445    3817    4288    3827
CTETRA        65       1    3532    3533    1909    1588
CTETRA        66       1      90      91      92      85
CTETRA        67       1      91      93      85      86
CTETRA        68       1    1774    1775    1790      94
CTETRA        69       1      90      95      96      86
CTETRA        70       1      97      95      88      86
CTETRA        71       1      96      97      91      86
CTETRA        72       1    4261       5    2028      98
CTETRA        73       1    1774    1790    1789      94
CTETRA        74       1      99     100     101     102
CTETRA        75       1     103     104     105     106
CTETRA        76       1     107     108     109     102
CTETRA        77       1     101     100     108     102
CTETRA        78       1     108     100     110       3
CTETRA        79       1    3633     111     112     113
CTETRA        80       1     114     115     116     117
CTETRA        81       1     118     119     120     102
CTETRA        82       1     109     119     118     102
CTETRA        83       1     108     100     109     102
CTETRA        84       1    3347    3348     121     122
CTETRA        85       1    2166    2454    2457     123
CTETRA        86       1     124     121     125     122
CTETRA        87       1    1900    1901    1916     126
CTETRA        88       1     127     124     128     122
CTETRA        89       1     129     130     131     132
CTETRA        90       1    2162    2175    2172     133
CTETRA        91       1    3415    1545    1544     134
CTETRA        92       1    4260     135     128     122
CTETRA        93       1    3679    1694    1709     136
CTETRA        94       1    4302    3347    3828     122
CTETRA        95       1    3572    3624    3623     137
CTETRA        96       1    3429    1175    4286     138
CTETRA        97       1    3679    1693    3680     139
CTETRA        98       1    3456    3457    1569     140
CTETRA        99       1    3472    1588    1587     141
CTETRA       100       1    1910    1587    1588     141
CTETRA       101       1    4260    4302    3828     122
CTETRA       102       1    3346    3347     124     122
CTETRA       103       1    4257     142     143     144
CTETRA       104       1    2165     145    2167     146
CTETRA       105       1     147     148     149     144
CTETRA       106       1     150     151     152     144
CTETRA       107       1     150     149      76     144
CTETRA       108       1    1836    1852     153     154
CTETRA       109       1      76     149     148     144
CTETRA       110       1    1518     155     156     157
CTETRA       111       1    1910    1911    1587     141
CTETRA       112       1    1879    1880    1895     129
CTETRA       113       1    4257     152     151     144
CTETRA       114       1     158       6     159     160
CTETRA       115       1     158     161       6     160
CTETRA       116       1     159     162     163     160
CTETRA       117       1     164     161     165     160
CTETRA       118       1     164     165     166     160
CTETRA       119       1     164     166     167     160
CTETRA       120       1     164     168     166     165
CTETRA       121       1     166       6     167     160
CTETRA       122       1    3471    2301    3472      43
CTETRA       123       1    2173    3082    2174     169
CTETRA       124       1    4080    3151    2175    3152
CTETRA       125       1    3679    1708    1693     170
CTETRA       126       1    1894    1910    1909     131
CTETRA       127       1    1912    1586    1585     171
CTETRA       128       1    3679     170    1693     139
CTETRA       129       1    3429    1542     170     138
CTETRA       130       1    1880    1896    1895      38
CTETRA       131       1    3429    4286    1542     138
CTETRA       132       1    1542     170     138     139
CTETRA       133       1    4219    1236    3080    3081
CTETRA       134       1    1693     170    1542     139
CTETRA       135       1     172     138     173     139
CTETRA       136       1     170     173     138     139
CTETRA       137       1    1874    1875    1890     174
CTETRA       138       1    3679     136     170     139
CTETRA       139       1     175     176     166     162
CTETRA       140       1    1806    1807    1822     140
CTETRA       141       1     177     178     179     180
CTETRA       142       1    3873    3874    2161    2337
CTETRA       143       1    3455    1513    3456     181
CTETRA       144       1    1819     179    1835     178
CTETRA       145       1     159       6     182     162
CTETRA       146       1     159     183     163     162
CTETRA       147       1     184     182     185     162
CTETRA       148       1     184     185     183     162
CTETRA       149       1    3439    2267    3440     186
CTETRA       150       1    1773    1789    1788     187
CTETRA       151       1       6     176     182     162
CTETRA       152       1    2180     188    2749     189
CTETRA       153       1    1908    1909    1582     190
CTETRA       154       1    2749    2750    2791     189
CTETRA       155       1    1919     191    1931     189
CTETRA       156       1    3151    3152    3168     192
CTETRA       157       1     188     193     194     189
CTETRA       158       1    1808    1570    1565     195
CTETRA       159       1    1806    1821     181     140
CTETRA       160       1    2180    2182     193     189
CTETRA       161       1    3400    1508    1519     156
CTETRA       162       1    1921     193    2182     189
CTETRA       163       1    1956    1957    1965     196
CTETRA       164       1     197     198     199     200
CTETRA       165       1    3343      99     101     201
CTETRA       166       1    3457    1518    3458     157
CTETRA       167       1    3333    1176    4284     202
CTETRA       168       1    3058     203    3061     204
CTETRA       169       1    3705    1276    2574    2638
CTETRA       170       1    2287     205     206     207
CTETRA       171       1    1694    1710    1709     208
CTETRA       172       1    1960     209     196     204
CTETRA       173       1    1964    1965     210     204
CTETRA       174       1    3052     203    3058     204
CTETRA       175       1    3457    1570    1569     157
CTETRA       176       1    3052    3053     211     204
CTETRA       177       1    3677    1738     212     213
CTETRA       178       1    3053     210     211     204
CTETRA       179       1     214     215     216     217
CTETRA       180       1     145     218     219     123
CTETRA       181       1     150     152     220     144
CTETRA       182       1     221     143     128     217
CTETRA       183       1     128     143     147     217
CTETRA       184       1    3584    3585    2271     222
CTETRA       185       1    1276    2574    2638     223
CTETRA       186       1    3439    2271    2267     186
CTETRA       187       1     221     120     118     217
CTETRA       188       1     216     109     224     217
CTETRA       189       1     215     220     143     217
CTETRA       190       1    1897    1898    1913     225
CTETRA       191       1    2280    2291      21     226
CTETRA       192       1    1897     227      59     225
CTETRA       193       1    1882    1883    1898      59
CTETRA       194       1     216     118     109     217
CTETRA       195       1    2095    2098     228     229
CTETRA       196       1    2092     230     231     229
CTETRA       197       1    1914    1594    1581     232
CTETRA       198       1    2593    2617    2616     233
CTETRA       199       1    2091    2495    2093     234
CTETRA       200       1    3438    3439    1555     235
CTETRA       201       1     236     237     238     147
CTETRA       202       1    3265    3266     230     199
CTETRA       203       1    1759    1760    1775      75
CTETRA       204       1    2091    2495     234     229
CTETRA       205       1     239     240     241     242
CTETRA       206       1    1702     243     244     245
CTETRA       207       1     246     243     247     248
CTETRA       208       1    1750    1751     249     250
CTETRA       209       1    3424    1168     246     251
CTETRA       210       1    2481    2485    2483     252
CTETRA       211       1    3611    2259     253     254
CTETRA       212       1    1733    1734    1749      93
CTETRA       213       1    3337    3338    1162     164
CTETRA       214       1     255     208     256     161
CTETRA       215       1     164     208     168     165
CTETRA       216       1     256     257     258     259
CTETRA       217       1    1695    1711    1710     256
CTETRA       218       1    3049      41    3072      37
CTETRA       219       1     158     161     256       1
CTETRA       220       1    1660    1661    1662     260
CTETRA       221       1    2458     145    2460     261
CTETRA       222       1    3385    3386    1530     262
CTETRA       223       1    3049      39    3057      35
CTETRA       224       1    3049    3073    3075      37
CTETRA       225       1    1214    1216    3075      37
CTETRA       226       1    3647    3648      26      25
CTETRA       227       1    3374    3553    3375     263
CTETRA       228       1     264     265     266     267
CTETRA       229       1    3376    3553    3552    1654
CTETRA       230       1    3152    3153    3167     268
CTETRA       231       1    3648    3649     269      25
CTETRA       232       1     269      29      33      27
CTETRA       233       1    2059    2060    2070     270
CTETRA       234       1      26      25     269      27
CTETRA       235       1     271      63     272      64
CTETRA       236       1    3152     268    3168     192
CTETRA       237       1     273     274      63      64
CTETRA       238       1    2168    2456    2455     261
CTETRA       239       1    1767     275    1768     276
CTETRA       240       1    3976    3365    3364    1621
CTETRA       241       1     274     277     278      64
CTETRA       242       1    3901    2188    2193    2763
CTETRA       243       1     274     272     279      63
CTETRA       244       1     274     272      63      64
CTETRA       245       1     274     278     272      64
CTETRA       246       1    2189    2194    2193     280
CTETRA       247       1    1565    1570     281     195
CTETRA       248       1     282     283     284       9
CTETRA       249       1       8     285     286       3
CTETRA       250       1    2193    2194    2199     280
CTETRA       251       1     283       8       9      10
CTETRA       252       1     287     288     289     290
CTETRA       253       1    3458    1519    1508     281
CTETRA       254       1       8      10       6       4
CTETRA       255       1    1819     179     178     291
CTETRA       256       1     292     293     294     295
CTETRA       257       1     296       3       2       4
CTETRA       258       1    2877     297    2885     298
CTETRA       259       1    3762    1456    1409    2372
CTETRA       260       1    2884    2885    2887     298
CTETRA       261       1    1459     299     300     301
CTETRA       262       1    3764    1454    1456    2349
CTETRA       263       1    2877     302     297     298
CTETRA       264       1     303     304     302     298
CTETRA       265       1     305     306      72      65
CTETRA       266       1      19      20     277      17
CTETRA       267       1      20      17      23      64
CTETRA       268       1    3867    2160    2079    2492
CTETRA       269       1    4120    4121    3225     307
CTETRA       270       1     273      17     277      64
CTETRA       271       1     308     309     310      72
CTETRA       272       1    3210    3315    3311     311
CTETRA       273       1    4096    2087    2083    3315
CTETRA       274       1    2087    3315    3210     311
CTETRA       275       1    4095    4096    2083    3315
CTETRA       276       1     309     312     313      72
CTETRA       277       1    1708     170    1723     314
CTETRA       278       1    4108    3231    2131    3233
CTETRA       279       1     315     313     312      72
CTETRA       280       1    3215    3231    3233     316
CTETRA       281       1     315     306     313      72
CTETRA       282       1     315     312     290      72
CTETRA       283       1    1693     170    1708     314
CTETRA       284       1    2366    2374    2383     317
CTETRA       285       1    3114    3130    3129     318
CTETRA       286       1    3092    3130    3114     319
CTETRA       287       1      11      71     290      72
CTETRA       288       1    1422     320    2371     321
CTETRA       289       1     305     290      71      72
CTETRA       290       1    4261     164     167      98
CTETRA       291       1    4261    3337     164      98
CTETRA       292       1    4047    4048    1921    3107
CTETRA       293       1    3836     322     323      98
CTETRA       294       1    2490    2492    2491     200
CTETRA       295       1     164     324     167      98
CTETRA       296       1    4217    1235    3079    3080
CTETRA       297       1    3077     325    3080     326
CTETRA       298       1    1236    3080    3081     325
CTETRA       299       1    2396     327    2421     328
CTETRA       300       1    2143    2829    2146     329
CTETRA       301       1    4303    4261    3837      98
CTETRA       302       1    4113    2143    2826    2829
CTETRA       303       1    3493    1542    1693    1543
CTETRA       304       1    4114    2829    2827     330
CTETRA       305       1    3462    1525    1524     331
CTETRA       306       1    4303    3837    3338      98
CTETRA       307       1     323       5     324      98
CTETRA       308       1    3338    3339     324      98
CTETRA       309       1    1241    2728    1242     332
CTETRA       310       1     333     334     335     336
CTETRA       311       1    2569    2648    2625     337
CTETRA       312       1    2854    2855    3033     338
CTETRA       313       1    2052     339    2668     340
CTETRA       314       1    2855     338    2950     341
CTETRA       315       1    2062    2063     342     340
CTETRA       316       1    2056    2062     343     340
CTETRA       317       1    2051     339    2052     340
CTETRA       318       1    2572     344    2674     345
CTETRA       319       1    2051    2056     343     340
CTETRA       320       1    2595     303     302     346
CTETRA       321       1    2209    2216    2215     327
CTETRA       322       1    2616    2617     265     233
CTETRA       323       1    2309     347    2315     348
CTETRA       324       1    3961    2592    2053    2602
CTETRA       325       1    3960    2059    2601    2602
CTETRA       326       1     343     342     349     340
CTETRA       327       1    1403     350    1405     277
CTETRA       328       1    2129    2130    2132     351
CTETRA       329       1    1405     350     352     277
CTETRA       330       1    3845    2132    2496    2551
CTETRA       331       1     353     278     277      64
CTETRA       332       1      20     353     277      64
CTETRA       333       1      23      66      64      65
CTETRA       334       1    2497    2548    2551     351
CTETRA       335       1     273     277     274      64
CTETRA       336       1     274     350     278     277
CTETRA       337       1    3860    2094    2085    2481
CTETRA       338       1     147     149     220     144
CTETRA       339       1    2094    2095    2097     228
CTETRA       340       1    2469    2482     252     354
CTETRA       341       1     355     147     143     144
CTETRA       342       1    3705    3706    1284    2638
CTETRA       343       1     355     142     148     144
CTETRA       344       1    3870    2456    2167    2457
CTETRA       345       1      78     149     147     148
CTETRA       346       1    3872    2455    2168    2456
CTETRA       347       1     355      80     238     148
CTETRA       348       1     356     357     358      81
CTETRA       349       1    4073    2208    2214    3142
CTETRA       350       1    3762    3763    1456    2372
CTETRA       351       1     299     300     301     359
CTETRA       352       1    3761    3762    1409    2372
CTETRA       353       1    2364    2372    2365     321
CTETRA       354       1      67      80     360      81
CTETRA       355       1      67      80      69      68
CTETRA       356       1    3630    2294    2297     361
CTETRA       357       1      69      70     358      81
CTETRA       358       1     362      93     363     364
CTETRA       359       1     365     247     246     364
CTETRA       360       1     366     247     365     364
CTETRA       361       1    3983    3354    3353     367
CTETRA       362       1     362     363     247     364
CTETRA       363       1     246     247     363     364
CTETRA       364       1     368     369     370     260
CTETRA       365       1    2244    2245    2384     371
CTETRA       366       1    3892    2245    2240    2385
CTETRA       367       1     372     373     374     375
CTETRA       368       1    2955    2956    2962     376
CTETRA       369       1    4015    1999    2002    2962
CTETRA       370       1    4014    2955    2962     376
CTETRA       371       1     370     377     378     375
CTETRA       372       1     379     373     380     375
CTETRA       373       1     381     374     373     375
CTETRA       374       1     381     377     374     375
CTETRA       375       1     142      76     148     144
CTETRA       376       1      78     147     238     148
CTETRA       377       1      78      74     149      77
CTETRA       378       1    1878    1879    1894     382
CTETRA       379       1    1848     383     384     385
CTETRA       380       1      78     386     387     149
CTETRA       381       1    3457    3458    1570     157
CTETRA       382       1     388     389     390     391
CTETRA       383       1    3399    3400    1519     156
CTETRA       384       1     392     393     394      45
CTETRA       385       1    1822    1838    1837     395
CTETRA       386       1    2277     396     216     397
CTETRA       387       1     398      78     386     387
CTETRA       388       1    3349    1158    1159     399
CTETRA       389       1     214     220     387     149
CTETRA       390       1    3421    1539    1538     117
CTETRA       391       1    1699    1700    1715     114
CTETRA       392       1      52     400     401     402
CTETRA       393       1    3653     308     403     309
CTETRA       394       1    3600      52     404     402
CTETRA       395       1    1916     405    1595     126
CTETRA       396       1    2209    2210    2216     406
CTETRA       397       1    4281    3600     407     402
CTETRA       398       1     166     163     402     162
CTETRA       399       1    1916    1589    1595     405
CTETRA       400       1    1596     166    1610     402
CTETRA       401       1    4075    3143    2202    3150
CTETRA       402       1    1610     408     400     402
CTETRA       403       1    3531    1910    1911    1587
CTETRA       404       1     409     327     410     328
CTETRA       405       1     404     411     183     402
CTETRA       406       1    3531    1911    1585    1587
CTETRA       407       1     412     132     382     413
CTETRA       408       1    3153    3154    3167     268
CTETRA       409       1     414       8       1     285
CTETRA       410       1    2910    2933    2911     415
CTETRA       411       1     414       1     416     285
CTETRA       412       1    3532    1910    1587    1588
CTETRA       413       1    3497    1795    1796    1551
CTETRA       414       1     109     119     100     285
CTETRA       415       1    2397    2422    2421     327
CTETRA       416       1    3609     239    1618     253
CTETRA       417       1    1796    1548    1551     417
CTETRA       418       1    4008    4009    2020    2933
CTETRA       419       1     418     285     224     286
CTETRA       420       1    4133    3241    3242     419
CTETRA       421       1    4134    1384    1387    3242
CTETRA       422       1    1742     420     421     285
CTETRA       423       1    1379     422     423     424
CTETRA       424       1    1742     416     420     285
CTETRA       425       1    4009    2017    2020    2933
CTETRA       426       1     109     224     285     286
CTETRA       427       1     425     426     391     312
CTETRA       428       1     427     288     315     312
CTETRA       429       1     309     313     310      72
CTETRA       430       1    2542    2544    2543     428
CTETRA       431       1    1336    1342    1337     428
CTETRA       432       1    3799    2530    1342    2544
CTETRA       433       1     403     429     313     312
CTETRA       434       1      66      71      72      65
CTETRA       435       1     288     290     315     312
CTETRA       436       1    3357    1170    1169     430
CTETRA       437       1     308      66     431      72
CTETRA       438       1     272     432     433     434
CTETRA       439       1      11     290     435      72
CTETRA       440       1     436     437     438     290
CTETRA       441       1     437     305     306     290
CTETRA       442       1    1855     439     289     440
CTETRA       443       1     305     306     290      72
CTETRA       444       1     289      71     440     290
CTETRA       445       1    1882      59    1897     441
CTETRA       446       1    3575    1646    1643     442
CTETRA       447       1    3574    3660    1643     292
CTETRA       448       1     289      11     290     435
CTETRA       449       1     443     444     180     445
CTETRA       450       1    3600    3601    2264      52
CTETRA       451       1    4277    1614    1616     446
CTETRA       452       1    1607    1608    1612     447
CTETRA       453       1     448     449     450     451
CTETRA       454       1    2203    2210    2209     406
CTETRA       455       1    4280    1611    1607      52
CTETRA       456       1    4281    3599    3598     407
CTETRA       457       1    3560    1653     448     451
CTETRA       458       1    3560    1653    3644     448
CTETRA       459       1    4282    3597    4283    1598
CTETRA       460       1    3598    2254    2273     407
CTETRA       461       1    1637     452     453     454
CTETRA       462       1    1637    1653     452     454
CTETRA       463       1     418     455     396     456
CTETRA       464       1    4281    1596    1611     402
CTETRA       465       1    1651     457     458     452
CTETRA       466       1    3505    3506    1786    1562
CTETRA       467       1    3414    3555    1651     458
CTETRA       468       1    3412    3413    1522     458
CTETRA       469       1    1638     453     459     454
CTETRA       470       1    1638     459    1653     454
CTETRA       471       1    3644     459     205     454
CTETRA       472       1    2538    2539    2540     460
CTETRA       473       1     257     461     258     259
CTETRA       474       1    3249    3251     462     463
CTETRA       475       1    3283    3284     219     464
CTETRA       476       1    3267    3301    3299     465
CTETRA       477       1     101     110     466     259
CTETRA       478       1     101     467     110     259
CTETRA       479       1    3418    1165     468     461
CTETRA       480       1    3170    3171    3187     469
CTETRA       481       1    3417     257    1165     461
CTETRA       482       1    3198     470    3199     471
CTETRA       483       1    2339    2358    2340     472
CTETRA       484       1    1504    3137    3200     473
CTETRA       485       1    1165     101     468     259
CTETRA       486       1     443     180     474     445
CTETRA       487       1    1710    1711    1726     158
CTETRA       488       1    1672     475     474     476
CTETRA       489       1    3441    3442    1562     396
CTETRA       490       1    3594    2272    2276     477
CTETRA       491       1    3997    3998    2074    2871
CTETRA       492       1    2375    2392    2383     478
CTETRA       493       1     319     317     479     478
CTETRA       494       1     318     480     317     478
CTETRA       495       1     475     474     476     180
CTETRA       496       1    4184    1407    3093    3119
CTETRA       497       1     443     385     481     445
CTETRA       498       1    1407     482    1423     483
CTETRA       499       1    2375     484    2392     478
CTETRA       500       1    4198    1193    3014    3015
CTETRA       501       1    4199    4200    1192    3015
CTETRA       502       1    3998    2073    2871    2875
CTETRA       503       1    1191    1193    1192     485
CTETRA       504       1    1194    3005     486     487
CTETRA       505       1    1202    2794     488     489
CTETRA       506       1    2814    2818    2819     490
CTETRA       507       1    1669     491     474     445
CTETRA       508       1     481     385     491     445
CTETRA       509       1    1668    1670     492     445
CTETRA       510       1    2824    2828    2825     493
CTETRA       511       1    2148    2150    2151     494
CTETRA       512       1    1668     492     481     445
CTETRA       513       1     493     495     330     329
CTETRA       514       1     443     481     444     445
CTETRA       515       1     474     491     385     445
CTETRA       516       1     496     178     497     498
CTETRA       517       1     499       8     455     182
CTETRA       518       1    2328    2329    2759     500
CTETRA       519       1     325     501     334     502
CTETRA       520       1    2700    2701    2739     503
CTETRA       521       1    1221    1227    1226     504
CTETRA       522       1    2787     489    2788     505
CTETRA       523       1    2723    2731    2740     334
CTETRA       524       1    2798     505    2799     506
CTETRA       525       1     475     180     444     445
CTETRA       526       1     475     180     497     444
CTETRA       527       1     178     497     180     444
CTETRA       528       1    2951     507     341     508
CTETRA       529       1    2627    2681    2680     341
CTETRA       530       1     240     250     509     510
CTETRA       531       1     511     512     513     510
CTETRA       532       1    3742    2788    1199    2801
CTETRA       533       1     514     513     512     510
CTETRA       534       1     514     515     513     516
CTETRA       535       1    2857    2952    2953     507
CTETRA       536       1     241      62     250     510
CTETRA       537       1     511     241     512     510
CTETRA       538       1    2855    2951    2856     517
CTETRA       539       1     512     241     240     510
CTETRA       540       1    2626    2627    2680     341
CTETRA       541       1    2855    2950    2951     341
CTETRA       542       1    1673    1678    1677     476
CTETRA       543       1     103     105     107     106
CTETRA       544       1    1987    1988    1999     518
CTETRA       545       1     519     107     520     106
CTETRA       546       1     107     521     108     106
CTETRA       547       1    2059    2601    2593     270
CTETRA       548       1    1581     232     522     225
CTETRA       549       1    2592    2593    2616     233
CTETRA       550       1    2053    2593     233     270
CTETRA       551       1     519     523     284     106
CTETRA       552       1     284     523     521     106
CTETRA       553       1    3962    2044    2592    2615
CTETRA       554       1    2053    2593    2059    2602
CTETRA       555       1    2053    2593    2592     233
CTETRA       556       1    2574    2575    2637     223
CTETRA       557       1    3959    3960    2059    2601
CTETRA       558       1     524     104     523     106
CTETRA       559       1     457     263     525     526
CTETRA       560       1     452     527     528     526
CTETRA       561       1     527     528     526     529
CTETRA       562       1     458     530     531     526
CTETRA       563       1    2307    2507    2511     532
CTETRA       564       1    3220    3221    3226     533
CTETRA       565       1    3221    3222    3226     533
CTETRA       566       1    2506    2511    2507     534
CTETRA       567       1     493     330     495     535
CTETRA       568       1     525     536     530     526
CTETRA       569       1     537     380     373     375
CTETRA       570       1    1460    2351    1466     538
CTETRA       571       1    2348    2349    2364     539
CTETRA       572       1     319     299     539     321
CTETRA       573       1    3199     470     540     471
CTETRA       574       1     541     373     537     380
CTETRA       575       1     541     542     537     373
CTETRA       576       1    3622    2301    2302     543
CTETRA       577       1    1409    1456    1455     321
CTETRA       578       1     541     542     373     529
CTETRA       579       1     544     545     541     373
CTETRA       580       1     544     381     546     373
CTETRA       581       1     547     546     374     373
CTETRA       582       1     429     427      46     535
CTETRA       583       1     548     493     429     535
CTETRA       584       1     548     330     535     549
CTETRA       585       1    3830    2322    2323     550
CTETRA       586       1    1321     551    1325     552
CTETRA       587       1    2308    2619    2620     553
CTETRA       588       1    3588    3670    3589     554
CTETRA       589       1     548     535      46     549
CTETRA       590       1     555      49      45      50
CTETRA       591       1    1757    1773    1772     556
CTETRA       592       1    1757     421    1758     556
CTETRA       593       1    3588     214    2278     150
CTETRA       594       1    4114    2150    2146     330
CTETRA       595       1     557      44      53      50
CTETRA       596       1    3844    2502    2496     558
CTETRA       597       1    3706    2636    1284    2638
CTETRA       598       1    3845    2132    2135    2496
CTETRA       599       1     557      53      48      50
CTETRA       600       1    1607     447     559     401
CTETRA       601       1     447     213     559     401
CTETRA       602       1    3705    1284    1276    2638
CTETRA       603       1     560     401     213     411
CTETRA       604       1    2942    2943     561     562
CTETRA       605       1     563     564     565     562
CTETRA       606       1    4106    4107    2125    3216
CTETRA       607       1    4107    2128    3216    3233
CTETRA       608       1    2125    3216    2128     566
CTETRA       609       1    2125    2128    2127     566
CTETRA       610       1    4106    2125    2122    3216
CTETRA       611       1     567     568     561     562
CTETRA       612       1    2938    2942     568     562
CTETRA       613       1    3703    1288    2589    2590
CTETRA       614       1    3704    1276    1285    2574
CTETRA       615       1    2941     569     565     562
CTETRA       616       1    1285    1288    2590     570
CTETRA       617       1    4010    2014    2017    2910
CTETRA       618       1    4008    2020    2932    2933
CTETRA       619       1    2938     568     569     562
CTETRA       620       1     109     118     119     217
CTETRA       621       1     571     107     109     118
CTETRA       622       1     572     107     573     118
CTETRA       623       1     221     118     215     217
CTETRA       624       1    3825     273    3826     274
CTETRA       625       1     216     571     109     118
CTETRA       626       1    1897     227    1912     171
CTETRA       627       1    1911    1912    1585     171
CTETRA       628       1    1896    1897    1912     171
CTETRA       629       1    1897     441     227     171
CTETRA       630       1    1842    1843    1858     574
CTETRA       631       1    1896      38     441     171
CTETRA       632       1    3410    1640    3411     575
CTETRA       633       1     573     215     221     118
CTETRA       634       1     576     577     578      92
CTETRA       635       1    4100    4101    2108    3254
CTETRA       636       1    1812    1576    1813     579
CTETRA       637       1    1638    1640    1642     580
CTETRA       638       1    1858    1873     581     582
CTETRA       639       1    3578    1642    3579      28
CTETRA       640       1    4270     583    3618      92
CTETRA       641       1    4270    1630     583      92
CTETRA       642       1     578      92      93      85
CTETRA       643       1    3859    2481    2086    2485
CTETRA       644       1    3618     583      90      92
CTETRA       645       1    1774      74      75     187
CTETRA       646       1    1788    1789    1549     187
CTETRA       647       1    1758    1759    1774     556
CTETRA       648       1    1172     584      61     365
CTETRA       649       1    1626    1628      90      92
CTETRA       650       1    1909    1588    1582     131
CTETRA       651       1    1626      90      91      92
CTETRA       652       1    3616    1626      90      96
CTETRA       653       1    1627     585      92     586
CTETRA       654       1    1717    1733    1732     362
CTETRA       655       1    2085    2481    2094     587
CTETRA       656       1    1748      87      83      93
CTETRA       657       1    1809    1825    1824     588
CTETRA       658       1     589     590     591     592
CTETRA       659       1    1810     593    1825     588
CTETRA       660       1      91      92      93     586
CTETRA       661       1    3961    2044    2053    2592
CTETRA       662       1    1491     594     595     473
CTETRA       663       1    1502    1505    1504     473
CTETRA       664       1    2310    2311    2614     596
CTETRA       665       1     513     314     515     597
CTETRA       666       1    1501    1503     470     473
CTETRA       667       1    3429     170    1542     314
CTETRA       668       1    1693    1543    1542     314
CTETRA       669       1    1504    1505    3149     473
CTETRA       670       1    3411    3412    1524     598
CTETRA       671       1    3688    1577     530     599
CTETRA       672       1    4261    2028    3837      98
CTETRA       673       1    3149     595     600     473
CTETRA       674       1    3186     470    3200     473
CTETRA       675       1    2375    2376    2392     484
CTETRA       676       1    1503    3200     470     473
CTETRA       677       1    2079    2491     200     234
CTETRA       678       1    2079     200    2088     234
CTETRA       679       1    3462    3463    1576     331
CTETRA       680       1    2492     218     123     200
CTETRA       681       1    2160    2492     123     200
CTETRA       682       1    2078    2160     123     200
CTETRA       683       1    1282     601     602     603
CTETRA       684       1    1280    1282     604     603
CTETRA       685       1    1280    2915    2920     603
CTETRA       686       1    2914     604     605     603
CTETRA       687       1     606     601     607     603
CTETRA       688       1    3772    3773    1492    2412
CTETRA       689       1    3772    2412    1491    2413
CTETRA       690       1    2918     608    2919     603
CTETRA       691       1    2530    2544    2542     428
CTETRA       692       1    2914    2915     604     603
CTETRA       693       1    1337    2530     609     428
CTETRA       694       1    1337    2564    1366     609
CTETRA       695       1    1337    1366    1364     609
CTETRA       696       1    3136     610     611     612
CTETRA       697       1     554     150     152     220
CTETRA       698       1     152     143     215     220
CTETRA       699       1    2596    2597    2600     613
CTETRA       700       1     214     220     215     217
CTETRA       701       1     143     220     147     217
CTETRA       702       1      18      66      23      14
CTETRA       703       1     147     387     220     149
CTETRA       704       1    1979    1982     614     615
CTETRA       705       1    3801    1361    1366    2564
CTETRA       706       1    1977    2747    2734     616
CTETRA       707       1    3799    3800    1337    2530
CTETRA       708       1    3700    1294    2587    2591
CTETRA       709       1    1977    2734    1985     616
CTETRA       710       1    2586     617     570     618
CTETRA       711       1    2581     303    2595     619
CTETRA       712       1    1982    1985     616     615
CTETRA       713       1    1207     620    2965     621
CTETRA       714       1    2967     622     621     623
CTETRA       715       1    1970     624     625     210
CTETRA       716       1    3461    1510    1511     626
CTETRA       717       1    3652    4121    4120     403
CTETRA       718       1    1970     624    1971     615
CTETRA       719       1    1971     624    2747     615
CTETRA       720       1    1970    1975     625     615
CTETRA       721       1    1512     627     628     629
CTETRA       722       1    4119    4120    3220     309
CTETRA       723       1    3406     393     392     630
CTETRA       724       1    3519    1809    1565    1579
CTETRA       725       1    3830    3831    2322     550
CTETRA       726       1    3829     127    3830     550
CTETRA       727       1    3590    3668    3667     571
CTETRA       728       1    3670    2831    2830     631
CTETRA       729       1    1975    1980     625     615
CTETRA       730       1     354     228     587     632
CTETRA       731       1      71      17      65      14
CTETRA       732       1    3311    3314    3312     633
CTETRA       733       1     442     634     635      22
CTETRA       734       1    3433    1552    1551     636
CTETRA       735       1    2059    2603    2601     270
CTETRA       736       1    3285    3287    3286     146
CTETRA       737       1    4083    3285    2164    3287
CTETRA       738       1    4083    2164    2174    3287
CTETRA       739       1    4082    4083    2174    3287
CTETRA       740       1    1370    1375    3257     637
CTETRA       741       1    4139    1373    3257    3258
CTETRA       742       1    1373    3257    3258     637
CTETRA       743       1      21     635      12      22
CTETRA       744       1    1432     638     639     482
CTETRA       745       1    1779      89    1780     640
CTETRA       746       1      58      22      16      14
CTETRA       747       1    3257    3260    3258     637
CTETRA       748       1     641     642     643     644
CTETRA       749       1     448     449     451     454
CTETRA       750       1     205     207     448     645
CTETRA       751       1    1365    1367    1369     646
CTETRA       752       1    4138    4139    1370    3257
CTETRA       753       1     449     207     206     645
CTETRA       754       1     449     206     647     645
CTETRA       755       1     648     254      89     649
CTETRA       756       1    4140    3205    1373    3258
CTETRA       757       1     205      30     206     645
CTETRA       758       1     650     651     652     653
CTETRA       759       1     654     453     582     645
CTETRA       760       1    3197    3201    3199     540
CTETRA       761       1    3171    3197    3187     469
CTETRA       762       1     655     582     452     454
CTETRA       763       1     654     582     449     645
CTETRA       764       1     205     453      30     645
CTETRA       765       1    3072      41     656      37
CTETRA       766       1    3063     656    3072      41
CTETRA       767       1      40     657      42      41
CTETRA       768       1    3063     657     656      41
CTETRA       769       1     656     658      40     657
CTETRA       770       1    4069    4070    2232    3181
CTETRA       771       1    4070    4071    2233    3182
CTETRA       772       1    1486     659    1500     660
CTETRA       773       1    3156    3160    3159     659
CTETRA       774       1    3163     661     662     663
CTETRA       775       1    2081     460    2113     664
CTETRA       776       1    1500    3158    3157     659
CTETRA       777       1    2383     317     480     478
CTETRA       778       1    3114     482    3119     483
CTETRA       779       1    3201     665    3203     471
CTETRA       780       1     666     667     665     471
CTETRA       781       1    3091    3130    3092     319
CTETRA       782       1    1279    1280    1281     604
CTETRA       783       1    2942    2943    2946     561
CTETRA       784       1    2923     668    2924     669
CTETRA       785       1    3434    1550    1552     640
CTETRA       786       1    4237    1279    2947     604
CTETRA       787       1    2943    2947    2946     561
CTETRA       788       1    3749    1190    2781    2782
CTETRA       789       1    2347     670     300     359
CTETRA       790       1    3747    1190    2780    2781
CTETRA       791       1    1488    1489     470     471
CTETRA       792       1     666     665     671     471
CTETRA       793       1    2849    2992     672     673
CTETRA       794       1    1477    1482     665     471
CTETRA       795       1    2756    2769    2770     674
CTETRA       796       1    1426     675     676     677
CTETRA       797       1     326     678     502     332
CTETRA       798       1    2778     679     680     676
CTETRA       799       1    2723     681     334     682
CTETRA       800       1     683     679     675     676
CTETRA       801       1    2723    2724    2731     334
CTETRA       802       1    1417     675     679     676
CTETRA       803       1    2721    2722    2740     684
CTETRA       804       1    2482     354     228     587
CTETRA       805       1    2514     685     686     687
CTETRA       806       1    1417     679    1418     676
CTETRA       807       1    3726    1242    2728    2729
CTETRA       808       1    3725    2730    2728     682
CTETRA       809       1    3920    2704    1927    2705
CTETRA       810       1    3922    2703    1962    2704
CTETRA       811       1    1927    2704    1962     688
CTETRA       812       1    1421    1426     676     677
CTETRA       813       1     325     326     502     332
CTETRA       814       1    1300    1303    2588     303
CTETRA       815       1    3698    1303    2583    2588
CTETRA       816       1    1232     504    1233     332
CTETRA       817       1    1233    1235    1238     332
CTETRA       818       1    2498    2512    2525     689
CTETRA       819       1    1239     325     682     332
CTETRA       820       1    2521    2524    2525     690
CTETRA       821       1    1241     682    2728     332
CTETRA       822       1    2721     684     678     332
CTETRA       823       1     326     504     678     332
CTETRA       824       1    2130    2131    2133     316
CTETRA       825       1    2522    2526    2528     691
CTETRA       826       1    3213     687    3229     692
CTETRA       827       1    3652    4120    3653     403
CTETRA       828       1    1232    2721     678     332
CTETRA       829       1    1236     325    1239     332
CTETRA       830       1    2469     354     252     693
CTETRA       831       1    3821    3822    2506     534
CTETRA       832       1    3822    3823    2511     532
CTETRA       833       1     694     518     695     696
CTETRA       834       1    2674    2677     697     696
CTETRA       835       1    4121    2824    3225     307
CTETRA       836       1    3862    2095    2094     228
CTETRA       837       1    1345    2466    2467     698
CTETRA       838       1    2675     695    2679     696
CTETRA       839       1    2674     697     699     696
CTETRA       840       1     700     701     686     329
CTETRA       841       1    3788    1345    2466    2467
CTETRA       842       1    3790    1345    2467    2468
CTETRA       843       1    3223     702     700     329
CTETRA       844       1    3370    1177    1178     703
CTETRA       845       1    2146    2829     330     329
CTETRA       846       1    3873    2337    2169    2455
CTETRA       847       1    3871    3872    2168    2456
CTETRA       848       1    2168    2169    2171     261
CTETRA       849       1    2826     702    3223     329
CTETRA       850       1    2167    2457    2456     261
CTETRA       851       1    2140    2142     702     329
CTETRA       852       1    3588    3589    2278     216
CTETRA       853       1    2140     702    2826     329
CTETRA       854       1    3312     633    3318     632
CTETRA       855       1     283     477     455       8
CTETRA       856       1     166     162       6     160
CTETRA       857       1     704     182     176     162
CTETRA       858       1     477     704     182     176
CTETRA       859       1    3844    3845    2135    2496
CTETRA       860       1     283     477       8      10
CTETRA       861       1     356     358     357     577
CTETRA       862       1    3853    2112    2103    2537
CTETRA       863       1     705     577     706     707
CTETRA       864       1    2084    2096    2100     633
CTETRA       865       1     576      92     578      85
CTETRA       866       1    3947    2655    2022     708
CTETRA       867       1    3946    2690    2655     708
CTETRA       868       1     709     578     710     577
CTETRA       869       1     710     357     358     577
CTETRA       870       1     583     705     576     577
CTETRA       871       1    2664     711     712     713
CTETRA       872       1    1822     157     154     140
CTETRA       873       1    1821    1822     154     140
CTETRA       874       1    2532    2533    2560     714
CTETRA       875       1    3918    3919    1943    2706
CTETRA       876       1    1821     179     181     140
CTETRA       877       1    1821     154     179     140
CTETRA       878       1    3919    2705    1937    2706
CTETRA       879       1     715     154     140     716
CTETRA       880       1    1807    1569     157     140
CTETRA       881       1    1806    1572    1569     181
CTETRA       882       1    1806     181    1569     140
CTETRA       883       1    3456    1569     181     140
CTETRA       884       1     628     305      73     306
CTETRA       885       1    3918    1943    1954    2696
CTETRA       886       1    1455     299    1457     321
CTETRA       887       1     305      73     306      65
CTETRA       888       1    3919    1937    1943    2706
CTETRA       889       1      63     306      73      65
CTETRA       890       1      15     305      71      73
CTETRA       891       1    2532    2541    2540     717
CTETRA       892       1    3530    1911    1912    1585
CTETRA       893       1    3530    3531    1911    1585
CTETRA       894       1    3530    1585    1912    1586
CTETRA       895       1    2294     112     718     719
CTETRA       896       1     440      71     305     290
CTETRA       897       1    3249    3251    3250     462
CTETRA       898       1    3629    3630    2297     361
CTETRA       899       1    1862    1878    1877     720
CTETRA       900       1    3630    3631    2294     361
CTETRA       901       1    3473    2293    3474     721
CTETRA       902       1    1837    1838     722     395
CTETRA       903       1     273     723     627      73
CTETRA       904       1    1838     724    1853     722
CTETRA       905       1     628     436     629     305
CTETRA       906       1     542     725     726     727
CTETRA       907       1     728     726     725     727
CTETRA       908       1    1822    1823    1838     195
CTETRA       909       1    2255     239     729     730
CTETRA       910       1    1737    1753    1752     731
CTETRA       911       1    3443     732    1560     733
CTETRA       912       1    3676    1768    1753     734
CTETRA       913       1     275     734     276     735
CTETRA       914       1    1753    1768     275     734
CTETRA       915       1     212     170     736     737
CTETRA       916       1    1612    1613    1614     738
CTETRA       917       1    3676    1753    3677     213
CTETRA       918       1     728     174     739     726
CTETRA       919       1     740     455     396     286
CTETRA       920       1    3504    3505    1787    1563
CTETRA       921       1     542     725     537     726
CTETRA       922       1    1788    1549    1563     741
CTETRA       923       1    1699     742     743     744
CTETRA       924       1    1712    1713    1728     745
CTETRA       925       1    1712    1728    1727     745
CTETRA       926       1    3343    1165     101     468
CTETRA       927       1     746     747     114     238
CTETRA       928       1    3346    1155    1164     124
CTETRA       929       1     174     542     726     727
CTETRA       930       1    2382    2392    2391     478
CTETRA       931       1    1640    1642     580      48
CTETRA       932       1    1667     748     361     413
CTETRA       933       1    3568    3630    3629     361
CTETRA       934       1    3567    3631    1665     749
CTETRA       935       1    3409    3580    3410     575
CTETRA       936       1     575     750     557      48
CTETRA       937       1     750      50      48      51
CTETRA       938       1      28      48      53      47
CTETRA       939       1    3579     557      53      48
CTETRA       940       1    3580     575     557      48
CTETRA       941       1    3687    1813    3688     599
CTETRA       942       1     545     751     546     525
CTETRA       943       1    1813    1576    1577     599
CTETRA       944       1     752     753     754     755
CTETRA       945       1     756     757     755     758
CTETRA       946       1    3423    1540    1537     245
CTETRA       947       1    2061    2892    2071     270
CTETRA       948       1     752     754     756     755
CTETRA       949       1    3423    3424    1540     251
CTETRA       950       1    3424    1534    1540     243
CTETRA       951       1    1399    1400    1404     759
CTETRA       952       1    1361    1365    1366     609
CTETRA       953       1    4127    1402    2839     278
CTETRA       954       1    4127    2839    2837     278
CTETRA       955       1    2230     755    2247     757
CTETRA       956       1    2230    2248     755     758
CTETRA       957       1    2837    2838     759     278
CTETRA       958       1    1402    1404    1403     278
CTETRA       959       1    2247    2251     760     755
CTETRA       960       1    1313    1316     761     297
CTETRA       961       1    3326     762    3331     763
CTETRA       962       1    1335    1341    1339     763
CTETRA       963       1    1338    2543    2444    2545
CTETRA       964       1     761     302     304     297
CTETRA       965       1    2877     764    2901     297
CTETRA       966       1    2901     764     765     297
CTETRA       967       1    1320    2886    2876     297
CTETRA       968       1    2361    2362     766     670
CTETRA       969       1     108     109     100       3
CTETRA       970       1     467     256       2     110
CTETRA       971       1    3026     767    3029     768
CTETRA       972       1       1     110     285       3
CTETRA       973       1    4221    1184    3024    3032
CTETRA       974       1    3028     335     769     770
CTETRA       975       1    3691    1321    1324    2320
CTETRA       976       1    3691    2320    1324    2325
CTETRA       977       1    1185    1208    1210     771
CTETRA       978       1     101     466     110     100
CTETRA       979       1    2965     620    2966     621
CTETRA       980       1    2966    3056    3055     621
CTETRA       981       1     256       1       2     110
CTETRA       982       1     101       2     108     110
CTETRA       983       1    1936    2795     772     773
CTETRA       984       1    3800    3801    1366    2564
CTETRA       985       1    1936     772    1941     773
CTETRA       986       1    1617    1619    1618     240
CTETRA       987       1    1692    1708    1707     314
CTETRA       988       1    1941     772     774     773
CTETRA       989       1    3425    1172    1171     775
CTETRA       990       1    3800    1366    1337    2564
CTETRA       991       1    1934    1940     776     773
CTETRA       992       1    1929     191    1932     773
CTETRA       993       1    3405     393    3406     630
CTETRA       994       1    3653    4119    3654     308
CTETRA       995       1    4119    3220    3219     272
CTETRA       996       1    3822    2511    2506     534
CTETRA       997       1    1934     776     777     773
CTETRA       998       1     191     777     776     773
CTETRA       999       1    3651     425     426     778
CTETRA      1000       1    3653    2290    2289     426
CTETRA      1001       1     554     152     215     220
CTETRA      1002       1    4257    1329     152     143
CTETRA      1003       1    1329    1331     779     143
CTETRA      1004       1    4258     355    4259     143
CTETRA      1005       1    2326     780    2327     781
CTETRA      1006       1     550     779     552     135
CTETRA      1007       1    3800    1337    2530    2564
CTETRA      1008       1    4282    3597    1598     175
CTETRA      1009       1    3301    3305    3304     782
CTETRA      1010       1    1346    1350    3308     783
CTETRA      1011       1    3300    3304    3303     784
CTETRA      1012       1     633     785     354     632
CTETRA      1013       1     550     779     135     221
CTETRA      1014       1    4114    2146    2829     330
CTETRA      1015       1    4111    2826    2140     702
CTETRA      1016       1     786     118     221     120
CTETRA      1017       1    2140    2826    2143     329
CTETRA      1018       1    2825     493    2828     329
CTETRA      1019       1    2825    2829    2826     329
CTETRA      1020       1    2246    2247    2251     760
CTETRA      1021       1     779     221     215     143
CTETRA      1022       1     221     215     143     217
CTETRA      1023       1    2228    3088    3178     787
CTETRA      1024       1     221     128     120     217
CTETRA      1025       1    1331     135     779     221
CTETRA      1026       1    2531    2563    2564     609
CTETRA      1027       1    1658     725     788     380
CTETRA      1028       1    1658     541     725     380
CTETRA      1029       1    1657     789    1659     725
CTETRA      1030       1    3967    3837    2028    2312
CTETRA      1031       1    1407    3093    3119     483
CTETRA      1032       1    1659     789     788     725
CTETRA      1033       1    3338    3837    3339      98
CTETRA      1034       1    3563     728    3638     725
CTETRA      1035       1    4049    3106    2183    3107
CTETRA      1036       1    1921    3107    2183     193
CTETRA      1037       1    1921    2846    3107     194
CTETRA      1038       1    3638     789    1657     725
CTETRA      1039       1    2847    3102    3107     194
CTETRA      1040       1    2382    2383    2392     478
CTETRA      1041       1    1969    1970    1975     210
CTETRA      1042       1    2739    2742     790     502
CTETRA      1043       1     728     174     726     727
CTETRA      1044       1     541     537     542     725
CTETRA      1045       1     788     537     725     726
CTETRA      1046       1    2693      34      42     622
CTETRA      1047       1     791     739     792     726
CTETRA      1048       1     789     725     728     726
CTETRA      1049       1    4103    3255    3245     793
CTETRA      1050       1    1934    1940    2971     776
CTETRA      1051       1    2116     794     641     793
CTETRA      1052       1    2785    2786    2797     795
CTETRA      1053       1    2998    3002    3003     776
CTETRA      1054       1    2116     641     796     793
CTETRA      1055       1    3673    1561    1558     797
CTETRA      1056       1    1196    1197    1201     487
CTETRA      1057       1    1308    2887    1311     298
CTETRA      1058       1    2104    2116     796     793
CTETRA      1059       1    3246     463     794     793
CTETRA      1060       1    2117    3245     794     793
CTETRA      1061       1    4247    1308    2880    2887
CTETRA      1062       1    2116    2117     794     793
CTETRA      1063       1    1211    2814    2819     490
CTETRA      1064       1    1493    1495     798     660
CTETRA      1065       1    1186     620     771     505
CTETRA      1066       1    1210    2819    2812     771
CTETRA      1067       1    3077     325     326     502
CTETRA      1068       1    2739     503     678     790
CTETRA      1069       1    1495    1496     600     660
CTETRA      1070       1    1495     600     798     660
CTETRA      1071       1    3601    3602    2264      52
CTETRA      1072       1    2721    2729    2722     332
CTETRA      1073       1    2721    2740    2739     678
CTETRA      1074       1    3064    3066    3065     790
CTETRA      1075       1    1496     799     600     660
CTETRA      1076       1    1495     600    3148     595
CTETRA      1077       1    3860    2094    2481    2494
CTETRA      1078       1    1499    1500     799     660
CTETRA      1079       1    1496    1499     799     660
CTETRA      1080       1    3919    3920    1937    2705
CTETRA      1081       1    2705    2714     688     800
CTETRA      1082       1    1926    1937    1927     800
CTETRA      1083       1    1927    2705    2704     688
CTETRA      1084       1    2197     268     801     802
CTETRA      1085       1    2177    2188     803     804
CTETRA      1086       1     805     280     806     804
CTETRA      1087       1    2192     807     806     804
CTETRA      1088       1    1895    1896    1911      38
CTETRA      1089       1     808     228     632     231
CTETRA      1090       1    2092     234     230     229
CTETRA      1091       1    2089     230    3265     231
CTETRA      1092       1    3265     230    3316     231
CTETRA      1093       1    2240    2385    2245     809
CTETRA      1094       1    2240    2386    2385     809
CTETRA      1095       1    2386    2388    2389     809
CTETRA      1096       1    4280    1607    3602      52
CTETRA      1097       1    3891    2240    2252    2386
CTETRA      1098       1    3673    1798    3674     810
CTETRA      1099       1    2098     231     228     229
CTETRA      1100       1     808     228     231     229
CTETRA      1101       1    2488     811    2495     229
CTETRA      1102       1    2101    3317     632     231
CTETRA      1103       1    3313     632    3317     231
CTETRA      1104       1    3873    2161    2169    2337
CTETRA      1105       1    4280    3600    1611      52
CTETRA      1106       1    2089    2092     230     231
CTETRA      1107       1    4091    2102    3316     231
CTETRA      1108       1    2366    2373    2367     317
CTETRA      1109       1    2097    2101     632     231
CTETRA      1110       1    2003    2004    2006     812
CTETRA      1111       1    4000    4001    2076    2873
CTETRA      1112       1    3600    2264    2254     813
CTETRA      1113       1    2097     632     228     231
CTETRA      1114       1     814     815     816     376
CTETRA      1115       1    2060    2071    2070     270
CTETRA      1116       1    3174    3184     817     758
CTETRA      1117       1    2232    3181    2233     817
CTETRA      1118       1    2232     817    2234     758
CTETRA      1119       1    3567    1663    3632     749
CTETRA      1120       1    2376    2390    2392     818
CTETRA      1121       1     819     383     748     749
CTETRA      1122       1    2003    2006    2005     376
CTETRA      1123       1     112     361     819     719
CTETRA      1124       1     720     820     821     749
CTETRA      1125       1    1911    1585    1587     171
CTETRA      1126       1    1665     361     748     749
CTETRA      1127       1    3631     112     361     749
CTETRA      1128       1    1663     749     369     113
CTETRA      1129       1    3661    2298    2299     292
CTETRA      1130       1    3471    1587    1585     171
CTETRA      1131       1    1896    1911      38     171
CTETRA      1132       1     394     495     557      44
CTETRA      1133       1    2576     822     617     823
CTETRA      1134       1     532     279     824     313
CTETRA      1135       1    1494    1498    1497     660
CTETRA      1136       1    3463    1524    1522     530
CTETRA      1137       1    1856    1857    1872     825
CTETRA      1138       1    2659     349     669     823
CTETRA      1139       1    1802    1568    1803     826
CTETRA      1140       1    1507    1530     827     496
CTETRA      1141       1    1567     377     378     828
CTETRA      1142       1     827     829     481     830
CTETRA      1143       1    1816    1817    1832     370
CTETRA      1144       1    1801    1802    1816     828
CTETRA      1145       1     349     831     832     823
CTETRA      1146       1    3440    2278    2277     833
CTETRA      1147       1     668     834     617     823
CTETRA      1148       1    1772     835    1787     456
CTETRA      1149       1    1787    1788    1563     741
CTETRA      1150       1    1773    1774    1789     187
CTETRA      1151       1    3441     833     396     835
CTETRA      1152       1    4260    3828    3689     135
CTETRA      1153       1    1756    1771     499     418
CTETRA      1154       1    3689    3828    2324     135
CTETRA      1155       1    1736      36     836     250
CTETRA      1156       1    3675    3676     560     734
CTETRA      1157       1    3605    3606    2266     446
CTETRA      1158       1    2878     302    2883     346
CTETRA      1159       1    3606    3607    2266     446
CTETRA      1160       1    1753    1768    1767     275
CTETRA      1161       1    4281    1611    3600     402
CTETRA      1162       1     127     128     135     122
CTETRA      1163       1    3599    3600    2254     407
CTETRA      1164       1    1330     779    1331     135
CTETRA      1165       1    3423     590     251     245
CTETRA      1166       1    1717    1718    1733     362
CTETRA      1167       1    4267    3581    4268      70
CTETRA      1168       1    4260    3828     135     122
CTETRA      1169       1    1734     837    1749      93
CTETRA      1170       1    3775    1494    1493    2409
CTETRA      1171       1    4260     125     121     122
CTETRA      1172       1    2323     552    2324     135
CTETRA      1173       1    1607      52    1611     400
CTETRA      1174       1    3602     838      52     559
CTETRA      1175       1    4279    1612      57     559
CTETRA      1176       1     731     213     838     559
CTETRA      1177       1    1612     839      57     559
CTETRA      1178       1    1612     738     559     840
CTETRA      1179       1     731     447     559     840
CTETRA      1180       1     839     738     838     559
CTETRA      1181       1     738     731     838     559
CTETRA      1182       1    3775    1494    2409    2410
CTETRA      1183       1    2529     841     691     842
CTETRA      1184       1    1386    2527    1389     843
CTETRA      1185       1     438     315     288     290
CTETRA      1186       1     438      49     288     315
CTETRA      1187       1     844     315     437     306
CTETRA      1188       1     845     427     315     313
CTETRA      1189       1    3211     434     846     847
CTETRA      1190       1    4133    3242    1387     419
CTETRA      1191       1    3239    3242    3241     419
CTETRA      1192       1    2522     692     687     848
CTETRA      1193       1    1381    1384    3243     423
CTETRA      1194       1     630     438     437     315
CTETRA      1195       1     305      72      71      65
CTETRA      1196       1    1321    1325    1324     552
CTETRA      1197       1     296       9       3       4
CTETRA      1198       1       8       6      10     182
CTETRA      1199       1     158       1       8       6
CTETRA      1200       1     414     158       1       8
CTETRA      1201       1     414     418       8     285
CTETRA      1202       1    1294    1295    1298     618
CTETRA      1203       1     109     285     100       3
CTETRA      1204       1     282       9     849     850
CTETRA      1205       1     617     851     570     618
CTETRA      1206       1       9     850       7     852
CTETRA      1207       1    1296    2921    1299     853
CTETRA      1208       1    1292    1296    1295     853
CTETRA      1209       1    1277    1284    1282     601
CTETRA      1210       1    1284    2638    2636     601
CTETRA      1211       1     282      10       9     850
CTETRA      1212       1    3707    1283    1284    2636
CTETRA      1213       1    2856    2952    2857     507
CTETRA      1214       1    1264    2646     854     855
CTETRA      1215       1    2938     568     856     569
CTETRA      1216       1      29      31      33      27
CTETRA      1217       1     778     391      33     857
CTETRA      1218       1    1273    2644    1274     855
CTETRA      1219       1    1187    3008    2976     620
CTETRA      1220       1     858     391     288      33
CTETRA      1221       1    2800    2812    2820     771
CTETRA      1222       1    2799    2800    2820     771
CTETRA      1223       1      29      33      31      47
CTETRA      1224       1     825     858     288      33
CTETRA      1225       1    3665    3666    2842     859
CTETRA      1226       1    3341    3834    3342     860
CTETRA      1227       1    3518    1809    1808    1565
CTETRA      1228       1    2611     861     596     862
CTETRA      1229       1     288      31      33      47
CTETRA      1230       1    1309    1313     761     304
CTETRA      1231       1    3206    3256    3248     863
CTETRA      1232       1    1309    2608    2609     304
CTETRA      1233       1    2582     302     303     304
CTETRA      1234       1    1313    1314     297     298
CTETRA      1235       1    1306    2609    2583     304
CTETRA      1236       1    2094    2494     228     587
CTETRA      1237       1    1303    2583     303     304
CTETRA      1238       1    3205    3258    3256     863
CTETRA      1239       1    3157    3158    3160     659
CTETRA      1240       1     864     799     798     328
CTETRA      1241       1    1307    1310     304     298
CTETRA      1242       1    1473    1480     864     865
CTETRA      1243       1    3160    3161    3162     659
CTETRA      1244       1    1491     595    1502     473
CTETRA      1245       1    2340    2403     594     866
CTETRA      1246       1    1504    3149    3137     473
CTETRA      1247       1    1304    1307     304     298
CTETRA      1248       1    1303     303    1304     304
CTETRA      1249       1    2214    2220    3183     867
CTETRA      1250       1      36     868     250     837
CTETRA      1251       1    3087    3161    3158     869
CTETRA      1252       1    2404     798     870     871
CTETRA      1253       1    2404    2406    2416     870
CTETRA      1254       1      36     511     366     513
CTETRA      1255       1    3963    2311    2038    2615
CTETRA      1256       1    2404    2405     798     871
CTETRA      1257       1      36     868     366      62
CTETRA      1258       1    2330    2778    2758     680
CTETRA      1259       1    3992    3993    2061    2894
CTETRA      1260       1    3364     511    1171      62
CTETRA      1261       1    3126    3128    3131     872
CTETRA      1262       1    1623      61     868      62
CTETRA      1263       1    3112    3128    3127     638
CTETRA      1264       1    4221    4222    1184    3032
CTETRA      1265       1     325     684     334     682
CTETRA      1266       1    1621     241     511      62
CTETRA      1267       1    1237    3081    3024     325
CTETRA      1268       1    3077    3081    3080     325
CTETRA      1269       1    4220    4221    1229    3024
CTETRA      1270       1     366     365     775      62
CTETRA      1271       1     548     429      46     535
CTETRA      1272       1    2722    2728     684     332
CTETRA      1273       1    4220    1229    1237    3024
CTETRA      1274       1    3023    3081    3077     325
CTETRA      1275       1     873      46      29     549
CTETRA      1276       1      44     494      46     535
CTETRA      1277       1    1204     490     621      39
CTETRA      1278       1    3138     600     874     473
CTETRA      1279       1     425     391     427     312
CTETRA      1280       1    1484     472    1489     667
CTETRA      1281       1    4173    1503    1504    3200
CTETRA      1282       1     494      46     535     549
CTETRA      1283       1     425     429     427      46
CTETRA      1284       1     426     390     391     435
CTETRA      1285       1    4015    4016    1999    2963
CTETRA      1286       1     425     391     778     857
CTETRA      1287       1     875     673     876     877
CTETRA      1288       1    2631    2657    2656     878
CTETRA      1289       1    3448    4116    1402     353
CTETRA      1290       1    2912    2941    2937     565
CTETRA      1291       1    2838     353     271     278
CTETRA      1292       1    2914    2915    2947     604
CTETRA      1293       1    4237    4238    1280    2915
CTETRA      1294       1    4235    1279    1246     561
CTETRA      1295       1    2040    2907    2046     879
CTETRA      1296       1    3448      23    4116     353
CTETRA      1297       1    3656     880    4117      23
CTETRA      1298       1    3656    4117    4116      23
CTETRA      1299       1    1208     771     620     621
CTETRA      1300       1      21      23      22      14
CTETRA      1301       1      21      22      12      14
CTETRA      1302       1      66      71      65      14
CTETRA      1303       1     273     881     277      17
CTETRA      1304       1    2816    2817    2820     771
CTETRA      1305       1    1194    1197    1196     487
CTETRA      1306       1    4281    3598    4282    1596
CTETRA      1307       1    2830    2903    2904     882
CTETRA      1308       1    2798     505     506     883
CTETRA      1309       1    1199    2801    2788     505
CTETRA      1310       1    2787    2788    2799     505
CTETRA      1311       1     771     505     620     506
CTETRA      1312       1     881      15      16      17
CTETRA      1313       1    3743    1201    2788    2794
CTETRA      1314       1    3727    3728    1232    2729
CTETRA      1315       1    3447      19      20     277
CTETRA      1316       1    1232    1242    2729     332
CTETRA      1317       1    1239     325    1240     682
CTETRA      1318       1    3023    3028    3024     335
CTETRA      1319       1    2890    2907    2906     264
CTETRA      1320       1    1242    2728    2729     332
CTETRA      1321       1    2666    2669    2668     340
CTETRA      1322       1    2067    2070     884     270
CTETRA      1323       1    3447    3448      20      22
CTETRA      1324       1    3448      23      20      22
CTETRA      1325       1     244     585     578     592
CTETRA      1326       1     585     578      93     363
CTETRA      1327       1     362     578     244     363
CTETRA      1328       1     585     363      93     586
CTETRA      1329       1    2106    2108    2107     462
CTETRA      1330       1    3208    3209    3327     885
CTETRA      1331       1     886     584     363     586
CTETRA      1332       1    2165    2167    2170     146
CTETRA      1333       1     430     251     244     363
CTETRA      1334       1    3267    3290    3284     197
CTETRA      1335       1      53      44      46      47
CTETRA      1336       1    2165    2166    2167     123
CTETRA      1337       1     429     887     427     535
CTETRA      1338       1    3871    2168    2167    2456
CTETRA      1339       1    2167    2456    2168     261
CTETRA      1340       1    2147      53      44     494
CTETRA      1341       1      44      50      45      47
CTETRA      1342       1    3773    3774    1492    2407
CTETRA      1343       1    3772    1492    1491    2412
CTETRA      1344       1     750     626      49      51
CTETRA      1345       1     888     438     626      49
CTETRA      1346       1     287      31     288      51
CTETRA      1347       1     288      51      31      47
CTETRA      1348       1     392      45      44      50
CTETRA      1349       1    3773    2407    1492    2412
CTETRA      1350       1     750      49      50      51
CTETRA      1351       1     630     626     438      49
CTETRA      1352       1     630      49     315      45
CTETRA      1353       1     323     467     324       2
CTETRA      1354       1    3895    2223    2244    2377
CTETRA      1355       1    3895    2223    2377    2381
CTETRA      1356       1     161       5       2       4
CTETRA      1357       1     322     296       5     852
CTETRA      1358       1    3627    2293    2304     889
CTETRA      1359       1     323     322       5      98
CTETRA      1360       1     472     874     594     473
CTETRA      1361       1     611     809     890     787
CTETRA      1362       1    2246     760     787     757
CTETRA      1363       1    3088    3120    3089     787
CTETRA      1364       1    3176    3178     787     757
CTETRA      1365       1    2228    2246     787     757
CTETRA      1366       1    2227    2241     611     787
CTETRA      1367       1    2227     611    3120     787
CTETRA      1368       1    3668    2830    2904     520
CTETRA      1369       1    3089    3120     611     787
CTETRA      1370       1    2228     787    3178     757
CTETRA      1371       1    1872     891     581     654
CTETRA      1372       1    1491    1501     594     473
CTETRA      1373       1    3558    1639    1641      24
CTETRA      1374       1    2902    2904    2903     524
CTETRA      1375       1    4297    3647    3577      25
CTETRA      1376       1    3138    3149    3148     600
CTETRA      1377       1    3669     554     631     571
CTETRA      1378       1    1773    1788     741     187
CTETRA      1379       1    1772     556     741     835
CTETRA      1380       1    3137    3149    3138     473
CTETRA      1381       1    1505     595    3149     473
CTETRA      1382       1     434     691     892     846
CTETRA      1383       1    3587     150    3672     152
CTETRA      1384       1    3586    3587    2267     150
CTETRA      1385       1    2611    2612    2619     862
CTETRA      1386       1    2033    2040    2039     879
CTETRA      1387       1    3212     434     892     846
CTETRA      1388       1    3589    2277    2278     216
CTETRA      1389       1    2267    2271     222     186
CTETRA      1390       1    1394    1396     846     847
CTETRA      1391       1    4131    1396    3211     846
CTETRA      1392       1    1774      94    1789     187
CTETRA      1393       1    3212     892    3241     846
CTETRA      1394       1    1772     556    1773     741
CTETRA      1395       1    3241     892     419     846
CTETRA      1396       1    4131    3211    3241     846
CTETRA      1397       1    1965     893    1966     210
CTETRA      1398       1    2309    2611    2619     862
CTETRA      1399       1    1970     625     624     615
CTETRA      1400       1     196     211     210     204
CTETRA      1401       1     625     624     893     210
CTETRA      1402       1    1966     893     624     210
CTETRA      1403       1    3434    2261    2262     894
CTETRA      1404       1      55     138     170     173
CTETRA      1405       1    3613    2262    2261     895
CTETRA      1406       1    2023    2033    2032     861
CTETRA      1407       1     896     736     170     173
CTETRA      1408       1      55     447     736     840
CTETRA      1409       1    2022     708    2655     713
CTETRA      1410       1    2665     712     897     713
CTETRA      1411       1    2240    2252    2386     809
CTETRA      1412       1    2664     712    2665     713
CTETRA      1413       1    2386    2387    2388     760
CTETRA      1414       1    3889    2252    2251     760
CTETRA      1415       1    2037    2662     897     713
CTETRA      1416       1    2241    2246    2252     760
CTETRA      1417       1    2226    2243    2242     612
CTETRA      1418       1    2662    2663    2664     713
CTETRA      1419       1      15      73      71      17
CTETRA      1420       1    3893    2384    2245    2385
CTETRA      1421       1    3875    3876    2154    2431
CTETRA      1422       1    1179    1189    1180     485
CTETRA      1423       1    2385     809    2389     371
CTETRA      1424       1    2242    2243    2245     371
CTETRA      1425       1    4079    2175    2163    3152
CTETRA      1426       1     724      16     722     898
CTETRA      1427       1    3779    1473    2393    2424
CTETRA      1428       1      58     634     899      22
CTETRA      1429       1      58     635     634      22
CTETRA      1430       1     881      73      15      17
CTETRA      1431       1    2162    2172     900     133
CTETRA      1432       1     724      15      16     898
CTETRA      1433       1     901     899      16     898
CTETRA      1434       1    1473    2393    2424     865
CTETRA      1435       1     722      16     899     898
CTETRA      1436       1    4081    2175    3151     133
CTETRA      1437       1    2502    2518    2515     685
CTETRA      1438       1    2154    2156    2155     801
CTETRA      1439       1     902     566     903     351
CTETRA      1440       1     589     591     904     592
CTETRA      1441       1    3229     700     905     687
CTETRA      1442       1    2496    2502    2515     558
CTETRA      1443       1     906     357     591     592
CTETRA      1444       1     710     591     357     904
CTETRA      1445       1    3850    2120    2549    2550
CTETRA      1446       1    2115    2120    2550     796
CTETRA      1447       1    3849    3850    2120    2549
CTETRA      1448       1    1635     367      69     591
CTETRA      1449       1      69      82     591     907
CTETRA      1450       1    2120    2121    2123     908
CTETRA      1451       1     906     591      82     907
CTETRA      1452       1     909      69     591     907
CTETRA      1453       1    4093    2100    2099    3318
CTETRA      1454       1    2083    2084    2100     633
CTETRA      1455       1    4095    2083    2100    3314
CTETRA      1456       1    2083     311    2084     633
CTETRA      1457       1     910     179     497     180
CTETRA      1458       1     492     475     497     444
CTETRA      1459       1    2081    2082    2109     885
CTETRA      1460       1     443     178     180     444
CTETRA      1461       1     910     476     179     180
CTETRA      1462       1    2655     711    2664     713
CTETRA      1463       1    3947    3948    2022    2663
CTETRA      1464       1     910     179     476     716
CTETRA      1465       1     179     178     497     180
CTETRA      1466       1    4025    1980    1979    3046
CTETRA      1467       1     475     474     180     445
CTETRA      1468       1     107     108     521     109
CTETRA      1469       1     109     224     119     285
CTETRA      1470       1    2155    2337    2432     900
CTETRA      1471       1     631     107     571     118
CTETRA      1472       1     224     119     387     217
CTETRA      1473       1     216     109     571     397
CTETRA      1474       1    3849    2549    2123    2553
CTETRA      1475       1    1965    1968    1966     893
CTETRA      1476       1    1966    1971    1970     624
CTETRA      1477       1     631     882     107     573
CTETRA      1478       1     520     882     524     106
CTETRA      1479       1    3926    1966    1968    2746
CTETRA      1480       1    1968    2748    2746     893
CTETRA      1481       1     521     523     104     106
CTETRA      1482       1     520     107     882     106
CTETRA      1483       1    2743    2746    2748     893
CTETRA      1484       1     105     882     107     106
CTETRA      1485       1    3021    3065     790     502
CTETRA      1486       1    3926    3927    1966    2746
CTETRA      1487       1    3531    3532    1910    1587
CTETRA      1488       1    1890    1906    1905     911
CTETRA      1489       1    3634    3635    2296     111
CTETRA      1490       1     103     107     108     106
CTETRA      1491       1    1860    1876    1875     912
CTETRA      1492       1     103     105     572     107
CTETRA      1493       1    1820    1836    1835     179
CTETRA      1494       1    3393    1517    1513     910
CTETRA      1495       1    2218    2224    2223     484
CTETRA      1496       1    1807    1808    1823     195
CTETRA      1497       1    3395    1516    1517     715
CTETRA      1498       1    1772    1788    1787     741
CTETRA      1499       1    1786    1787    1562     456
CTETRA      1500       1    2389     809     818     371
CTETRA      1501       1    2376     818     484     371
CTETRA      1502       1    2376     484    2377     371
CTETRA      1503       1    4275    1618    1620     253
CTETRA      1504       1     484     371     818     612
CTETRA      1505       1    1750     249     913     250
CTETRA      1506       1    3594    3664    3663     850
CTETRA      1507       1    2223     484    2224     371
CTETRA      1508       1     438     437     315     290
CTETRA      1509       1     436     914     438     437
CTETRA      1510       1    1697    1713    1712     466
CTETRA      1511       1    3404     628     844     437
CTETRA      1512       1    1696    1697    1712     256
CTETRA      1513       1    3405     393     630     437
CTETRA      1514       1    1711    1712    1727     416
CTETRA      1515       1    3580    4296    3838    3818
CTETRA      1516       1    3579    3580    2147     557
CTETRA      1517       1     747     114     238     915
CTETRA      1518       1     746      82     238     907
CTETRA      1519       1     360      80     148      77
CTETRA      1520       1     916     599     331     579
CTETRA      1521       1    2336    2435    2337     900
CTETRA      1522       1    4275    3609    4276    1618
CTETRA      1523       1     214     387     833     149
CTETRA      1524       1     238     915     125     237
CTETRA      1525       1    1619     511    1621     241
CTETRA      1526       1     355     238     125     147
CTETRA      1527       1      80     238     148      77
CTETRA      1528       1      78     238      82      77
CTETRA      1529       1    3975    3366    3976    1619
CTETRA      1530       1    1615    1617    1616     240
CTETRA      1531       1     142     360      80     148
CTETRA      1532       1    3427     917     515     597
CTETRA      1533       1     355     238     147     148
CTETRA      1534       1    4276    1618    3609     239
CTETRA      1535       1    1928    2999    1933     777
CTETRA      1536       1    3974    1617    1615     918
CTETRA      1537       1     895     894     254     649
CTETRA      1538       1     250     837     868     649
CTETRA      1539       1    3612     895     254     649
CTETRA      1540       1     868     837      88     649
CTETRA      1541       1    3431    1548    1559     919
CTETRA      1542       1    1620     868    1622     649
CTETRA      1543       1    4264    3595    3663     850
CTETRA      1544       1    3674    1783     276     810
CTETRA      1545       1    1622    1624     895     649
CTETRA      1546       1    4047    1921    1933    2846
CTETRA      1547       1    1624      88     895     649
CTETRA      1548       1    1920    1931    1933     189
CTETRA      1549       1    1823    1824     920     588
CTETRA      1550       1    1675     715     921     922
CTETRA      1551       1    1675     921     293     922
CTETRA      1552       1     722     395     898     922
CTETRA      1553       1    1857    1858     581     574
CTETRA      1554       1    3414    4285    1523     457
CTETRA      1555       1     155     899     898     922
CTETRA      1556       1    3414    3554    4285     457
CTETRA      1557       1    3412    3555    3413     458
CTETRA      1558       1    3753    1418    1412    2775
CTETRA      1559       1     722     923     154     922
CTETRA      1560       1     293     921     716     922
CTETRA      1561       1    1412    2775    1418     679
CTETRA      1562       1    1411    1415    1412     924
CTETRA      1563       1    1415    2774    2776     924
CTETRA      1564       1     925     921     715     716
CTETRA      1565       1    3518    1565    1808    1570
CTETRA      1566       1    4283    3597    3596    1598
CTETRA      1567       1    4264    4283    3596    1598
CTETRA      1568       1    1341    3319    3298     763
CTETRA      1569       1    4146    4147    1341    3319
CTETRA      1570       1    3874    2155    2337    2432
CTETRA      1571       1    2632     926     606     927
CTETRA      1572       1     925     715     140     716
CTETRA      1573       1     925     181     910     716
CTETRA      1574       1     164     928     208     161
CTETRA      1575       1     164     168     208     928
CTETRA      1576       1     929     163     408     165
CTETRA      1577       1    1832     930     370     931
CTETRA      1578       1     929     932     208     165
CTETRA      1579       1    1282    1284    1283     601
CTETRA      1580       1     255     208     161     165
CTETRA      1581       1    3708    1244    1283    2640
CTETRA      1582       1    2012    2013    2015     933
CTETRA      1583       1    1649     263     528     529
CTETRA      1584       1    1649     528     934     529
CTETRA      1585       1    3734    1219    1220    2707
CTETRA      1586       1    1654    1655     541     934
CTETRA      1587       1    3732    3733    1220    2708
CTETRA      1588       1    4234    1246    1250    2946
CTETRA      1589       1    1654     934     541     529
CTETRA      1590       1    2007    2688    2010     935
CTETRA      1591       1    1654     541     545     529
CTETRA      1592       1    1220    2708    2707    2719
CTETRA      1593       1    1709     255    1724     929
CTETRA      1594       1     161       6       5       4
CTETRA      1595       1    2910    2959    2958     936
CTETRA      1596       1     289     388      11     435
CTETRA      1597       1    2008    2011    2957     937
CTETRA      1598       1    3971    3333    4284     202
CTETRA      1599       1    1154     938    1161     134
CTETRA      1600       1    1680    1541    1681     939
CTETRA      1601       1    1679    1695    1694     939
CTETRA      1602       1      54     289      11      71
CTETRA      1603       1    2011    2014    2958     936
CTETRA      1604       1    3415    1154    1161     134
CTETRA      1605       1    1885     289     388      56
CTETRA      1606       1    1885     289     858     388
CTETRA      1607       1    1885    1900      60     388
CTETRA      1608       1    1957    1968    1965     893
CTETRA      1609       1    1869      54     289      56
CTETRA      1610       1     431     435     312      72
CTETRA      1611       1    3739    1185    1210    2812
CTETRA      1612       1      54      11      56      13
CTETRA      1613       1    3651    4122    3652     403
CTETRA      1614       1    4121    4122    2824     429
CTETRA      1615       1     163     411     408     402
CTETRA      1616       1    3403     723     844     628
CTETRA      1617       1    4118    3219    2838     271
CTETRA      1618       1    3677     213     896     411
CTETRA      1619       1    3676     940     560     411
CTETRA      1620       1    1842     581     287     941
CTETRA      1621       1    1637     598    1640     580
CTETRA      1622       1    3410    3557    3411    1640
CTETRA      1623       1    3602      57     838     559
CTETRA      1624       1    3688    1813    1577     599
CTETRA      1625       1    3410    3580    4296    3557
CTETRA      1626       1     560     942     838     401
CTETRA      1627       1    3411    1524    1525     598
CTETRA      1628       1    2470    2471    2487     808
CTETRA      1629       1     560     940     404     411
CTETRA      1630       1    3602      57     797     838
CTETRA      1631       1    2449    2475    2477     943
CTETRA      1632       1    2471    2480    2478     944
CTETRA      1633       1    2444     428     945     693
CTETRA      1634       1    2489     811     198     234
CTETRA      1635       1    2491     198     200     234
CTETRA      1636       1    2078     197    2090     200
CTETRA      1637       1    2490     198     218     200
CTETRA      1638       1    4069    2232    2231    3174
CTETRA      1639       1    2088     200    2089     234
CTETRA      1640       1     230     199     811     234
CTETRA      1641       1    2495     811     234     229
CTETRA      1642       1    1429     638    3118     946
CTETRA      1643       1    2091     234    2092     229
CTETRA      1644       1    1431    1432    1434     639
CTETRA      1645       1    1428     638    1432     482
CTETRA      1646       1     420     100     745     119
CTETRA      1647       1    1428    3117     638     482
CTETRA      1648       1     745     100     237     119
CTETRA      1649       1     237     147     119     120
CTETRA      1650       1     147     119     120     217
CTETRA      1651       1    2973    2978     883     947
CTETRA      1652       1    2809    2811     948     947
CTETRA      1653       1    4187    4188    1429    3118
CTETRA      1654       1    2698    2748     196     893
CTETRA      1655       1    2797    2798    2811     883
CTETRA      1656       1    2797     883    2811     947
CTETRA      1657       1    2797    2809     949     947
CTETRA      1658       1     950     951     948     947
CTETRA      1659       1    2978     952     883     947
CTETRA      1660       1    4039    4040    1947    2987
CTETRA      1661       1    3924    1957    1963    2697
CTETRA      1662       1    2811     883     952     947
CTETRA      1663       1    4267    1633      68      70
CTETRA      1664       1    2938    2942    2939     568
CTETRA      1665       1    2912    2937     415     565
CTETRA      1666       1    2161    2169    2337     900
CTETRA      1667       1    4267      68    3582      70
CTETRA      1668       1    2428    2440    2441     953
CTETRA      1669       1    3368    1178    1167     514
CTETRA      1670       1    2056    2874    2858     343
CTETRA      1671       1    1632     710      69      70
CTETRA      1672       1    4268    1631    1632      70
CTETRA      1673       1    4002    2056    2062    2874
CTETRA      1674       1    3428    1167    1178     515
CTETRA      1675       1    4122    4123    2828     548
CTETRA      1676       1    1631     954     710      70
CTETRA      1677       1      67     358      70      81
CTETRA      1678       1    1447    1449    1450     955
CTETRA      1679       1     956      75     957      81
CTETRA      1680       1      69     710     357     358
CTETRA      1681       1    3581      67     954      70
CTETRA      1682       1     427     315     288      45
CTETRA      1683       1    1194     486    3005     958
CTETRA      1684       1    4261    1600     167     959
CTETRA      1685       1    2787    2794    2788     489
CTETRA      1686       1    3336    3337     164     959
CTETRA      1687       1    2787    2793    2794     489
CTETRA      1688       1     168     166     960     959
CTETRA      1689       1    3968    3336    3969     959
CTETRA      1690       1    1190    2780    2781     961
CTETRA      1691       1    2779    2781    2780     961
CTETRA      1692       1    3750    2774    1181    2782
CTETRA      1693       1    3969    3336     960     959
CTETRA      1694       1    2782     962     963     924
CTETRA      1695       1    2180    2771    2749     188
CTETRA      1696       1     164     166     168     959
CTETRA      1697       1     532     824     534     313
CTETRA      1698       1     393     845     427     315
CTETRA      1699       1     313     306     310      72
CTETRA      1700       1    2180    2182    2185     193
CTETRA      1701       1     844     845     315     306
CTETRA      1702       1    3905    2179    2755    2771
CTETRA      1703       1    2179    2755    2771     188
CTETRA      1704       1     305      71      73      65
CTETRA      1705       1     628     437     305     306
CTETRA      1706       1    2732    2742    2740     501
CTETRA      1707       1     425      46     427     857
CTETRA      1708       1    4263       7     850     852
CTETRA      1709       1    4263       7     176     850
CTETRA      1710       1    3663    2844    2027     850
CTETRA      1711       1     196     203     211     204
CTETRA      1712       1    1960     209     688     196
CTETRA      1713       1    3922    3923    1963    2703
CTETRA      1714       1    1962    2704    2703     688
CTETRA      1715       1    2426    2441    2442     953
CTETRA      1716       1     115     116     591     907
CTETRA      1717       1      69      82     357     591
CTETRA      1718       1     367     116     909     591
CTETRA      1719       1     964     238      82     907
CTETRA      1720       1     909     965     399     907
CTETRA      1721       1     114     965     116     907
CTETRA      1722       1    2053    2059    2593     270
CTETRA      1723       1     909     399     964     907
CTETRA      1724       1    2038    2615    2311     596
CTETRA      1725       1     555     750     626      49
CTETRA      1726       1    2045    2046    2055     264
CTETRA      1727       1    3643    2282    2284     448
CTETRA      1728       1     287     438      49     288
CTETRA      1729       1     575     966     750      51
CTETRA      1730       1     287     581      31      51
CTETRA      1731       1    2533    2540    2539     967
CTETRA      1732       1    1956     196    1965     204
CTETRA      1733       1    2533    2534    2554     968
CTETRA      1734       1    1649     263     457     528
CTETRA      1735       1    1652     451     934     528
CTETRA      1736       1    1652     452     451     528
CTETRA      1737       1    1380    1383    1382     969
CTETRA      1738       1     970     971     422     972
CTETRA      1739       1     263     525     526     529
CTETRA      1740       1     970     973     690     422
CTETRA      1741       1     263     526     528     529
CTETRA      1742       1    2500    2524    2523     969
CTETRA      1743       1    1649     457    1651     528
CTETRA      1744       1    1651     457     452     528
CTETRA      1745       1     452     527     451     528
CTETRA      1746       1    3868    3869    2166    2454
CTETRA      1747       1    3868    2160    2492     123
CTETRA      1748       1     168     208     134     932
CTETRA      1749       1    3416    1162    1160     928
CTETRA      1750       1     929     400     932     408
CTETRA      1751       1     896     136     932     173
CTETRA      1752       1    3787    1332    2332    2466
CTETRA      1753       1     896     932     400     173
CTETRA      1754       1     929     400     408     411
CTETRA      1755       1    3058    3061    3062     204
CTETRA      1756       1     782     974     698     975
CTETRA      1757       1    2464    2465    2466     698
CTETRA      1758       1    2153    2156    2154     801
CTETRA      1759       1    2153    2197     268     801
CTETRA      1760       1    4261     167     164     959
CTETRA      1761       1    2198     801    2430     409
CTETRA      1762       1     900     169     192     133
CTETRA      1763       1    2435    2437    2436     976
CTETRA      1764       1     172     134     136     932
CTETRA      1765       1    1965     196     893     210
CTETRA      1766       1    1259     767     977     978
CTETRA      1767       1    3067     625     211     210
CTETRA      1768       1    3165    3168    3167     268
CTETRA      1769       1     517     977     767     978
CTETRA      1770       1    2155    2432     801     900
CTETRA      1771       1    2153     268    2156     801
CTETRA      1772       1     767     768     337     978
CTETRA      1773       1    3819     394    2318     495
CTETRA      1774       1    1259     979     768     978
CTETRA      1775       1    3406    3821    3820     393
CTETRA      1776       1    2648     854     337     978
CTETRA      1777       1    2150     980    2151     494
CTETRA      1778       1    1253     979    1259     978
CTETRA      1779       1    3651    4123    4122     425
CTETRA      1780       1    3820    3821    2505     394
CTETRA      1781       1    3448    1646    3576     981
CTETRA      1782       1    1648      19     899      22
CTETRA      1783       1     982     983     721     413
CTETRA      1784       1    1648      19     901     899
CTETRA      1785       1      19      16     899      22
CTETRA      1786       1    3648    2281    2288     269
CTETRA      1787       1    3448    1646     981      22
CTETRA      1788       1    1646    1648     634      22
CTETRA      1789       1    3968    3337    3336     959
CTETRA      1790       1    3447      20      19      22
CTETRA      1791       1    4303    3338    3337      98
CTETRA      1792       1    2470    2480    2471     984
CTETRA      1793       1    1664     369     748     985
CTETRA      1794       1    1662     368     369     986
CTETRA      1795       1    2111    3252    3253     885
CTETRA      1796       1    2080     664    2484     252
CTETRA      1797       1     370     987     985     986
CTETRA      1798       1     370     985     369     986
CTETRA      1799       1    2243     611     809     612
CTETRA      1800       1    2243     809    2245     371
CTETRA      1801       1    3948    2031    2022    2663
CTETRA      1802       1    2223    2244    2377     371
CTETRA      1803       1    2219    2224     988     612
CTETRA      1804       1     611     610     818     612
CTETRA      1805       1    4010    4011    2014    2958
CTETRA      1806       1    2012    2015    2014     415
CTETRA      1807       1     989     244     578     592
CTETRA      1808       1     367     589     591     904
CTETRA      1809       1    3942    2007    2004     812
CTETRA      1810       1    3941    2683    2004    2685
CTETRA      1811       1     244     590     251     592
CTETRA      1812       1    2680     815     816     341
CTETRA      1813       1     989     115     244     592
CTETRA      1814       1     982     413     132     491
CTETRA      1815       1     385     132     413     491
CTETRA      1816       1    1979    1982     990     614
CTETRA      1817       1    1669     481     491     445
CTETRA      1818       1    1669     474    1670     445
CTETRA      1819       1    1979    1983    1982     615
CTETRA      1820       1    1978    1982    1981     990
CTETRA      1821       1    4026    3019    1980    3046
CTETRA      1822       1    1938     800     991     992
CTETRA      1823       1    1669     889    1671     474
CTETRA      1824       1    1669     889     474     491
CTETRA      1825       1    3917    3918    1954    2696
CTETRA      1826       1     474     132     385     491
CTETRA      1827       1     970     642     973     644
CTETRA      1828       1    3471    2302    2301      43
CTETRA      1829       1    3236    3259     971     644
CTETRA      1830       1    2092    2102    2098     231
CTETRA      1831       1    2556     970     643     642
CTETRA      1832       1     970     971     993     644
CTETRA      1833       1    2347     670    2361     538
CTETRA      1834       1    1894    1895    1910     131
CTETRA      1835       1    1582     131     721     190
CTETRA      1836       1    1472     666     665     538
CTETRA      1837       1    1800    1801    1816     377
CTETRA      1838       1    1815    1816    1831     377
CTETRA      1839       1    2350    2359     666     538
CTETRA      1840       1    1815    1831    1830     374
CTETRA      1841       1     301     665     671     538
CTETRA      1842       1    1488    1489    1503     470
CTETRA      1843       1    1815    1831     374     377
CTETRA      1844       1    1801     377    1567     828
CTETRA      1845       1    1938    1939    1944     991
CTETRA      1846       1    1770     456    1785     733
CTETRA      1847       1    2359    2361     666     538
CTETRA      1848       1    1931     994    1933     189
CTETRA      1849       1    2179     188    2180     193
CTETRA      1850       1    1770    1771    1786     456
CTETRA      1851       1    1785    1786    1557     456
CTETRA      1852       1    1759      74     556     386
CTETRA      1853       1    3102     194     995     193
CTETRA      1854       1     584     363     586     364
CTETRA      1855       1      93     586     363     364
CTETRA      1856       1    1921     194    3107     193
CTETRA      1857       1     996     188     194     189
CTETRA      1858       1    2180     193     188     189
CTETRA      1859       1     600     595     594     473
CTETRA      1860       1     556     186     833     149
CTETRA      1861       1    1635     710    1636     904
CTETRA      1862       1     355     143     142     144
CTETRA      1863       1    3983    1635    3354     367
CTETRA      1864       1    1715    1731    1730     746
CTETRA      1865       1      78     148     238      77
CTETRA      1866       1     125     237     128     147
CTETRA      1867       1    3983    3352    1634     367
CTETRA      1868       1     236     147     387     119
CTETRA      1869       1    2451    2472    2478     465
CTETRA      1870       1     238     237     125     147
CTETRA      1871       1    3619    2253    2257     583
CTETRA      1872       1    1716    1717     989     115
CTETRA      1873       1     318     317     482     483
CTETRA      1874       1    1746    1747     997     357
CTETRA      1875       1    2065    2579    2598     613
CTETRA      1876       1    1973    1986     345     998
CTETRA      1877       1    4259    1606    4260     355
CTETRA      1878       1    2736     999    2737     998
CTETRA      1879       1    1926    1938     800     991
CTETRA      1880       1    2572     345    2573     998
CTETRA      1881       1    1915    1595    1594     126
CTETRA      1882       1     999     990    1000     998
CTETRA      1883       1    2572    1001     345     998
CTETRA      1884       1    3468    1581    1594     232
CTETRA      1885       1    4186    1424    3119     482
CTETRA      1886       1    1803    1818    1817     826
CTETRA      1887       1    3113    3119    3114     482
CTETRA      1888       1    1816     370     377     828
CTETRA      1889       1     829     985     481     830
CTETRA      1890       1      19      22      20      14
CTETRA      1891       1    1571     497     291     498
CTETRA      1892       1      58      59    1002     635
CTETRA      1893       1    3432    2255     729     730
CTETRA      1894       1     311     664     252    1003
CTETRA      1895       1    1925    1939    1938     991
CTETRA      1896       1    3496    1796    1797    1548
CTETRA      1897       1    1927    1937    2705     800
CTETRA      1898       1      54      13      58      14
CTETRA      1899       1    3453    1529    1530     987
CTETRA      1900       1    3385    1530    1529     262
CTETRA      1901       1    1002     635     227     295
CTETRA      1902       1      60     522      59      12
CTETRA      1903       1      59     227     522     225
CTETRA      1904       1      59     522     227     635
CTETRA      1905       1    2816    2819    2818     490
CTETRA      1906       1    1501    1504    1503     473
CTETRA      1907       1     111     820     791     718
CTETRA      1908       1     821     788     113    1004
CTETRA      1909       1    4175    1488    1503    3198
CTETRA      1910       1     912     820     792    1004
CTETRA      1911       1    1485    1494    2410     660
CTETRA      1912       1     820     821     113    1004
CTETRA      1913       1    1005     111     788    1004
CTETRA      1914       1    2851    3116    3098     675
CTETRA      1915       1    2346    2362    2361     670
CTETRA      1916       1     572     118     786     102
CTETRA      1917       1    3112     638    3127     946
CTETRA      1918       1     420     416     745     100
CTETRA      1919       1     107     109     521     397
CTETRA      1920       1     101     108     201     102
CTETRA      1921       1     107     109     118     102
CTETRA      1922       1     786     120      99     102
CTETRA      1923       1    3217     759    3227     847
CTETRA      1924       1    2774     963    2777     924
CTETRA      1925       1    2865    1006     884     619
CTETRA      1926       1    4037    4038    1945    2985
CTETRA      1927       1    3750    1415    1181    2774
CTETRA      1928       1     434     847     759    1007
CTETRA      1929       1    1399    1404    3218     759
CTETRA      1930       1     432     434     759    1007
CTETRA      1931       1     273     627    1008      73
CTETRA      1932       1    4128    4129    1404    3218
CTETRA      1933       1    1400     759     847    1007
CTETRA      1934       1    1399    3218    3217     759
CTETRA      1935       1    1399     759    3217     847
CTETRA      1936       1    2228    3178    2229     757
CTETRA      1937       1    1233    1234    1235     326
CTETRA      1938       1    3811    3812    1389    2527
CTETRA      1939       1    1388     842    1391     419
CTETRA      1940       1     841     843    1009     419
CTETRA      1941       1    1389    1392    1391     842
CTETRA      1942       1    1233    1234     326     504
CTETRA      1943       1    1221    1010    1222     504
CTETRA      1944       1    3537    1904    1905    1591
CTETRA      1945       1    1233     504     326     332
CTETRA      1946       1    2702     503    2710     504
CTETRA      1947       1    1232     678     504     332
CTETRA      1948       1    1316    1319     761     297
CTETRA      1949       1    1318    1321    2621    1011
CTETRA      1950       1     127     221     128     120
CTETRA      1951       1    1232     678    2702     504
CTETRA      1952       1    3039    1012    3040    1013
CTETRA      1953       1    2896     764    2897    1014
CTETRA      1954       1     551    1011    1015    1016
CTETRA      1955       1    1001     344     345    1013
CTETRA      1956       1    1292    1293    1296     853
CTETRA      1957       1    1904    1905    1591    1017
CTETRA      1958       1    1998    1012    3039    1013
CTETRA      1959       1    1018    1012     344    1013
CTETRA      1960       1    4242    2921    1296     853
CTETRA      1961       1    1923    1012    1998    1013
CTETRA      1962       1    2740     678     684     502
CTETRA      1963       1     700     702     701     329
CTETRA      1964       1    2144    1019    2503     701
CTETRA      1965       1    2502     685     558     701
CTETRA      1966       1    1271    1273    1274     855
CTETRA      1967       1    2138    2139    2141     701
CTETRA      1968       1    1889    1890    1905    1017
CTETRA      1969       1    1267    1268    1270     977
CTETRA      1970       1    1268    1271    1270     507
CTETRA      1971       1     700     702     905     701
CTETRA      1972       1     293     294    1020    1021
CTETRA      1973       1    1022    1020     294    1021
CTETRA      1974       1    2412    2413    2415     594
CTETRA      1975       1    4220    3024    1237    3081
CTETRA      1976       1    4219    4220    1237    3081
CTETRA      1977       1     543     294     293    1021
CTETRA      1978       1     137    1023     130    1021
CTETRA      1979       1     543    1024     137    1021
CTETRA      1980       1     137     130      43    1021
CTETRA      1981       1    2482     252     354     587
CTETRA      1982       1    2084     252    2086     587
CTETRA      1983       1     366     365     868     364
CTETRA      1984       1    1025      58      16      14
CTETRA      1985       1     474    1024    1020    1021
CTETRA      1986       1    1022      38     129    1021
CTETRA      1987       1      54      71      11      14
CTETRA      1988       1     916     530     536     531
CTETRA      1989       1     916     331     530     531
CTETRA      1990       1     598     916     580     531
CTETRA      1991       1     287     858     289     288
CTETRA      1992       1    1704     366    1719     247
CTETRA      1993       1    1984    2734    2736     999
CTETRA      1994       1    3590    3669    3668     571
CTETRA      1995       1    1719     366    1026     247
CTETRA      1996       1     574     582     531     526
CTETRA      1997       1     366     365     247     775
CTETRA      1998       1     457     530     458     526
CTETRA      1999       1     581     582     580     531
CTETRA      2000       1    3566    3632    1663     113
CTETRA      2001       1    3666    3667    2902     519
CTETRA      2002       1    3634    1661     111     113
CTETRA      2003       1     912     821     820    1004
CTETRA      2004       1    1905    1906    1580     911
CTETRA      2005       1    3832     103    2618     572
CTETRA      2006       1    3467    1027    1594     126
CTETRA      2007       1     820     821     749     113
CTETRA      2008       1     655     934     451     527
CTETRA      2009       1     655     451     452     527
CTETRA      2010       1     448     645     449     454
CTETRA      2011       1    3591    3666    3592     284
CTETRA      2012       1    3560     448    3643     451
CTETRA      2013       1    3643     448    1028     451
CTETRA      2014       1    3340    3836    3835     323
CTETRA      2015       1    3987    2027    3663    2844
CTETRA      2016       1    1029     526     751     529
CTETRA      2017       1    1649    1652     934     528
CTETRA      2018       1    4264    3595    4300    3663
CTETRA      2019       1    3824     844     723     279
CTETRA      2020       1    3407    3820    3819     392
CTETRA      2021       1    1650    1652    1028     934
CTETRA      2022       1    3408    3819    3818     557
CTETRA      2023       1     392     394      44      45
CTETRA      2024       1    3818    2319    2147     557
CTETRA      2025       1    3267     465     199     975
CTETRA      2026       1    1652    1028     934     451
CTETRA      2027       1     655     934     450     451
CTETRA      2028       1    3266    3299    3294     230
CTETRA      2029       1    1030    1031     974    1032
CTETRA      2030       1    2940    2952     856     507
CTETRA      2031       1    3300    3301    3304     784
CTETRA      2032       1    4164    1475    3276    1033
CTETRA      2033       1    1034     862     348     523
CTETRA      2034       1    1034     524     862     523
CTETRA      2035       1     524     105     862     104
CTETRA      2036       1    1462    1469    1468    1035
CTETRA      2037       1    1468    1469    1475    1035
CTETRA      2038       1    3086    3276    3271    1036
CTETRA      2039       1    2134    2136     905     702
CTETRA      2040       1    4112    2143    2140    2826
CTETRA      2041       1     175     166     402     162
CTETRA      2042       1    4110    4111    2137    3224
CTETRA      2043       1    4111    2140    2137     702
CTETRA      2044       1    2134    3232    2137     702
CTETRA      2045       1    3223    3230     905     702
CTETRA      2046       1     159     184     183     162
CTETRA      2047       1     163     183     411     402
CTETRA      2048       1    3092    3114    3093     483
CTETRA      2049       1     638     872    1037    1038
CTETRA      2050       1     813     404    1039     183
CTETRA      2051       1     184     185     732     183
CTETRA      2052       1    3634    1659    3635     111
CTETRA      2053       1     184     732    1039     183
CTETRA      2054       1    1414     962     924    1040
CTETRA      2055       1    2625    2648    2626     854
CTETRA      2056       1    2852    2853    3040    1012
CTETRA      2057       1    2852    3040    3041    1012
CTETRA      2058       1    1410    1414     924    1040
CTETRA      2059       1    4019    1996    2852    3041
CTETRA      2060       1    2777    1041     679     924
CTETRA      2061       1    1412    2776     679     924
CTETRA      2062       1    3681    3682    1904    1042
CTETRA      2063       1    1411    1412     679     924
CTETRA      2064       1    1043    1044     679     924
CTETRA      2065       1    1041     672    1043     924
CTETRA      2066       1    2847    2996    3001     994
CTETRA      2067       1     191     777     994    1045
CTETRA      2068       1     174     739     792    1017
CTETRA      2069       1    4001    2062    2873    2874
CTETRA      2070       1    2062    2873     343     342
CTETRA      2071       1    2869    2870    2875    1006
CTETRA      2072       1    3999    4000    2076    2875
CTETRA      2073       1    3823     844    3824     279
CTETRA      2074       1    1379     423    1381     424
CTETRA      2075       1    3240    3244     423     424
CTETRA      2076       1     973     423     422     424
CTETRA      2077       1    1381     423    3244     424
CTETRA      2078       1    4137    3234    1378    3244
CTETRA      2079       1    3577    2151    2150     980
CTETRA      2080       1    3405    3821    3406     393
CTETRA      2081       1     391     288      33     857
CTETRA      2082       1    1378    3244    3234     424
CTETRA      2083       1    3408    1506    1511     750
CTETRA      2084       1    1046     824     533     433
CTETRA      2085       1    2961     695     694     518
CTETRA      2086       1    1987    2964    1047     518
CTETRA      2087       1     723     274     279      63
CTETRA      2088       1    1989     816    2000     518
CTETRA      2089       1    2507    2526    1048     824
CTETRA      2090       1     814     376     816     518
CTETRA      2091       1    2000     376    2002     518
CTETRA      2092       1    2122     794     566     908
CTETRA      2093       1    2124     903     566     351
CTETRA      2094       1    3050    3063    3072      41
CTETRA      2095       1    1205    3054    1215      39
CTETRA      2096       1    2124     903    2126     908
CTETRA      2097       1    3327     311    3328    1003
CTETRA      2098       1    2785    2797    2796     772
CTETRA      2099       1    2116    2120     641     908
CTETRA      2100       1    2120    2549     641     908
CTETRA      2101       1    1203    1217    1219      34
CTETRA      2102       1    2116     641     794     908
CTETRA      2103       1    2549    2553     641     908
CTETRA      2104       1    2980     506     952     623
CTETRA      2105       1    2124     566    2127     351
CTETRA      2106       1    2126     903    2553     908
CTETRA      2107       1    1940     774    1941     951
CTETRA      2108       1    3746    1188    2754    2780
CTETRA      2109       1    1941     774     949     951
CTETRA      2110       1    3745    2754    1202    2794
CTETRA      2111       1    2754    2794    2793     488
CTETRA      2112       1     948     951     949     947
CTETRA      2113       1    2786     488     489     795
CTETRA      2114       1    1952     948     950     951
CTETRA      2115       1    1947    1952     950     951
CTETRA      2116       1    1190    2781    2782     962
CTETRA      2117       1    4266    3583    4267      68
CTETRA      2118       1    2779    2781     961     962
CTETRA      2119       1    2753    2780    2754     961
CTETRA      2120       1    2753    2779    2780     961
CTETRA      2121       1    3953    3954    2058    2668
CTETRA      2122       1    2666    2668     339     340
CTETRA      2123       1    3952    2052    2667    2668
CTETRA      2124       1    3581    3582      67      70
CTETRA      2125       1     142      80     360      68
CTETRA      2126       1    2888    2897    2900    1049
CTETRA      2127       1    2616     265     596     233
CTETRA      2128       1    2897    2906    2905     266
CTETRA      2129       1     638    1050     639     482
CTETRA      2130       1    2061    2894    2892     267
CTETRA      2131       1    1655    1051     541     934
CTETRA      2132       1    2614    2615    2616     596
CTETRA      2133       1    2032    2038    2311     596
CTETRA      2134       1      67      69      80      81
CTETRA      2135       1    3962    3963    2038    2615
CTETRA      2136       1    1633      69      68      70
CTETRA      2137       1    3541    1674    1675     921
CTETRA      2138       1    1345    2467    2468     698
CTETRA      2139       1    1353    1357    1356     943
CTETRA      2140       1    1673     925     910     476
CTETRA      2141       1    3791    2449    1344    2468
CTETRA      2142       1    2450    2468    2465    1052
CTETRA      2143       1     925     910     476     716
CTETRA      2144       1    2208    3142    3150     410
CTETRA      2145       1     293     921     476     716
CTETRA      2146       1    2197    2198    2204     409
CTETRA      2147       1    3168     192     268     976
CTETRA      2148       1    3139    3146    3140     871
CTETRA      2149       1    3895    3896    2223    2381
CTETRA      2150       1     890     818     610     359
CTETRA      2151       1    3129    3130    3132     318
CTETRA      2152       1    2376    2377    2390     371
CTETRA      2153       1    3395     715     925     921
CTETRA      2154       1    3395     925    1674     921
CTETRA      2155       1    1673    1674     925     921
CTETRA      2156       1    3587     554    3588     150
CTETRA      2157       1    4265    3584    1603     151
CTETRA      2158       1    1673     476     293     921
CTETRA      2159       1    3583    3584    2270     360
CTETRA      2160       1    4265    3584    4266    1603
CTETRA      2161       1     112     819     718     719
CTETRA      2162       1    2672    2675    2673     699
CTETRA      2163       1    2015    2017     415    1053
CTETRA      2164       1    3438    2270    3439     235
CTETRA      2165       1    2022     713    1054    1053
CTETRA      2166       1     711     708     933    1053
CTETRA      2167       1    2022    2030    1054     713
CTETRA      2168       1    2021    1054    2029    1053
CTETRA      2169       1    2021     708    2022    1053
CTETRA      2170       1     954     706     709     358
CTETRA      2171       1    3892    3893    2245    2385
CTETRA      2172       1      67     235     956      81
CTETRA      2173       1     356     957      79      81
CTETRA      2174       1     956     957     706     358
CTETRA      2175       1     355     125     128     147
CTETRA      2176       1    1889    1905    1904    1017
CTETRA      2177       1    2064    2669    2579    1055
CTETRA      2178       1    4063    3088    2227    3120
CTETRA      2179       1    4062    2227    2226    3120
CTETRA      2180       1    2227    3088    2228     787
CTETRA      2181       1    4260    1606    1604     355
CTETRA      2182       1     124     125     915     237
CTETRA      2183       1    2064    2579    2065    1055
CTETRA      2184       1      78     387     147     149
CTETRA      2185       1     747     915     238     237
CTETRA      2186       1    1604     355    1606     964
CTETRA      2187       1    2826    3224    3223     702
CTETRA      2188       1     109     100     119     102
CTETRA      2189       1    1056     152     779     215
CTETRA      2190       1     550     573     779     221
CTETRA      2191       1     572     105     550     573
CTETRA      2192       1    3993    2071    2061    2892
CTETRA      2193       1    3992    2061    2055    2894
CTETRA      2194       1    2636     601    2642     602
CTETRA      2195       1    1283     601    2636     602
CTETRA      2196       1    2055    2890    2894     267
CTETRA      2197       1    1245    1252     563     602
CTETRA      2198       1    2641    2642     563     602
CTETRA      2199       1    1252    2639    2634     563
CTETRA      2200       1    4011    4012    2011    2957
CTETRA      2201       1    2634    2639    2641     563
CTETRA      2202       1     412     383     385     413
CTETRA      2203       1     983     382     721     413
CTETRA      2204       1     819     748     383     413
CTETRA      2205       1    3916    1954    1953    2803
CTETRA      2206       1    2695    2706    2696     992
CTETRA      2207       1    4235    2946    2947     561
CTETRA      2208       1    2784     191     772     773
CTETRA      2209       1    2783    2784    2802     773
CTETRA      2210       1    1667    1669     481     491
CTETRA      2211       1    3629     982     361     983
CTETRA      2212       1    3909    3910    1932    2783
CTETRA      2213       1      24      26     459      30
CTETRA      2214       1    1919    2783    1932     191
CTETRA      2215       1     206     647      30      32
CTETRA      2216       1     825      31     581      30
CTETRA      2217       1     581     654     891     453
CTETRA      2218       1      28      24      30      27
CTETRA      2219       1    1911     171    1587     141
CTETRA      2220       1      28     453      31      30
CTETRA      2221       1      31      30      33      27
CTETRA      2222       1    3636    3637    2286     789
CTETRA      2223       1      24     459     453      30
CTETRA      2224       1    3558    3646    1639      24
CTETRA      2225       1    1859    1860    1875    1057
CTETRA      2226       1    1874    1890    1889     174
CTETRA      2227       1    3476    2279    3477     791
CTETRA      2228       1    3635    3636    2279    1005
CTETRA      2229       1    3390    3391    1514     475
CTETRA      2230       1    1834    1835    1850     177
CTETRA      2231       1    1058     177    1022     474
CTETRA      2232       1    1835    1836    1851     153
CTETRA      2233       1    1821    1822    1837     154
CTETRA      2234       1    1865    1866    1022    1020
CTETRA      2235       1    4287    1558    1561     797
CTETRA      2236       1    3600    2264     813     404
CTETRA      2237       1    3673    1558    1798     810
CTETRA      2238       1    3674    1798    1783     810
CTETRA      2239       1    3646      24      26     459
CTETRA      2240       1    2262     895      95     894
CTETRA      2241       1    1750    1766    1765     249
CTETRA      2242       1    3645    3646     205     459
CTETRA      2243       1    3559    1639    3646     459
CTETRA      2244       1    1749    1765    1764     913
CTETRA      2245       1    1749    1750    1765     913
CTETRA      2246       1    1763      83      87      84
CTETRA      2247       1    1620     241    1621     868
CTETRA      2248       1    1621     868     241      62
CTETRA      2249       1     839     738     735     838
CTETRA      2250       1      89      95      84      86
CTETRA      2251       1     734     735     731     838
CTETRA      2252       1    1734    1026    1735     837
CTETRA      2253       1     839     735    1059     838
CTETRA      2254       1    1864     177    1058     385
CTETRA      2255       1    3571    3624    3572    1678
CTETRA      2256       1      57    1059     797     838
CTETRA      2257       1     797     276     942     838
CTETRA      2258       1    3673    3494    1798    1558
CTETRA      2259       1    3600     813     407     404
CTETRA      2260       1    3430    4287    2263     797
CTETRA      2261       1     255     163     165     160
CTETRA      2262       1       6      10     182     176
CTETRA      2263       1    3449    3450    1575     546
CTETRA      2264       1     159     499     184     182
CTETRA      2265       1     158     255     161     160
CTETRA      2266       1       1       8       6       4
CTETRA      2267       1    3374    4285    3554     457
CTETRA      2268       1    1819    1820     179     291
CTETRA      2269       1     477    1060     455     182
CTETRA      2270       1     159       6     162     160
CTETRA      2271       1    1516    1517     715     140
CTETRA      2272       1    1881    1022    1061      38
CTETRA      2273       1       5     296       2       4
CTETRA      2274       1       5       7     296       4
CTETRA      2275       1     323       5     296       2
CTETRA      2276       1    4174    3198    1503    3200
CTETRA      2277       1     600     799     798     660
CTETRA      2278       1     256       1     161       2
CTETRA      2279       1    4172    3137    1504    3149
CTETRA      2280       1     416     466     110     259
CTETRA      2281       1     416       1     256     110
CTETRA      2282       1     323     296     860       2
CTETRA      2283       1     860     108     101       2
CTETRA      2284       1     521     108     296       3
CTETRA      2285       1    3780    2417    1467    2424
CTETRA      2286       1    3780    3781    1461    2417
CTETRA      2287       1     521     296       9       3
CTETRA      2288       1    3477    2285    3478     739
CTETRA      2289       1       9       7      10       4
CTETRA      2290       1    4130    1396    1399    3217
CTETRA      2291       1     825      33      31      30
CTETRA      2292       1      49     288     315      45
CTETRA      2293       1    1303    1307    1306     304
CTETRA      2294       1    2607    2608     761     304
CTETRA      2295       1     427     288     857      47
CTETRA      2296       1      29     857      33      47
CTETRA      2297       1    3697    1303    1306    2583
CTETRA      2298       1     287     825     288      31
CTETRA      2299       1     213     401     400     411
CTETRA      2300       1     407     404     183     402
CTETRA      2301       1    3723    1243    1231     681
CTETRA      2302       1    3725    1243    2730     682
CTETRA      2303       1     655    1062    1063     727
CTETRA      2304       1     797     942     813     404
CTETRA      2305       1    2264     797     813     404
CTETRA      2306       1     942    1039     813     404
CTETRA      2307       1    2630    2641    2631     563
CTETRA      2308       1    4111    4112    2140    2826
CTETRA      2309       1    4203    1187    1195    3007
CTETRA      2310       1    3006    3007    3009     958
CTETRA      2311       1    3004    1064     486     487
CTETRA      2312       1    1702    1718     244     243
CTETRA      2313       1      52     401     404     402
CTETRA      2314       1    3982    3356    3355     904
CTETRA      2315       1    3355    3356    1153     589
CTETRA      2316       1    1356    2477    2476     943
CTETRA      2317       1    2824    3221    3225     307
CTETRA      2318       1    1252    2639     563     602
CTETRA      2319       1     315     290     306      72
CTETRA      2320       1    1825     888     439     436
CTETRA      2321       1    1594     126    1027     232
CTETRA      2322       1    3793    1356    1357    2477
CTETRA      2323       1    4119     309     272     310
CTETRA      2324       1    3404    3822    3405     844
CTETRA      2325       1    1825    1826     888    1065
CTETRA      2326       1     844     532     845     306
CTETRA      2327       1    1853    1854    1025     724
CTETRA      2328       1    1356    1357    2477     943
CTETRA      2329       1    3824    3825    2822     274
CTETRA      2330       1    4086    4087    2090    3291
CTETRA      2331       1    1352    1066     783     943
CTETRA      2332       1    3527    1594    1915    1595
CTETRA      2333       1    3654    4118    3655     880
CTETRA      2334       1    3592    2276    2275     740
CTETRA      2335       1     783    1067     784     943
CTETRA      2336       1    3341    3835    3834     860
CTETRA      2337       1    3593    3664    3594     282
CTETRA      2338       1    3834    3835    2309     347
CTETRA      2339       1    3590    3591    2277     397
CTETRA      2340       1    3666    2902    2842    1034
CTETRA      2341       1      63      72     306      65
CTETRA      2342       1    1352    1356    1066     943
CTETRA      2343       1     296       9       7     852
CTETRA      2344       1    1347     784    1067     943
CTETRA      2345       1    3411    1640    3412     598
CTETRA      2346       1    1344    1357    1347     943
CTETRA      2347       1    3409    4296    3580    3818
CTETRA      2348       1    3445      19     352     881
CTETRA      2349       1     873     548      46     549
CTETRA      2350       1    4297    3648    3647      25
CTETRA      2351       1    4124    4125     980      25
CTETRA      2352       1    2471    2472    2488     811
CTETRA      2353       1    3294    3295    3313    1068
CTETRA      2354       1    3655    3656    2291      18
CTETRA      2355       1    3265    3294    3316     230
CTETRA      2356       1      53      46      29      47
CTETRA      2357       1     873      29      46     857
CTETRA      2358       1      28      31      29      27
CTETRA      2359       1     288      33     857      47
CTETRA      2360       1      28      53      29      47
CTETRA      2361       1     825     389      33      32
CTETRA      2362       1     403     308     431     312
CTETRA      2363       1    3083    3084    3282     169
CTETRA      2364       1     403     431     426     312
CTETRA      2365       1    2077    2078     219     197
CTETRA      2366       1      18      11     431      66
CTETRA      2367       1    1438    1439    1463    1035
CTETRA      2368       1    4088    2089    2090    3292
CTETRA      2369       1    2089    3265     230     199
CTETRA      2370       1     880     271      23      66
CTETRA      2371       1     880      23      18      66
CTETRA      2372       1    4162    1469    1463    1035
CTETRA      2373       1     308     271      63     310
CTETRA      2374       1    1329     779     152     143
CTETRA      2375       1    3271    1036    3276    1035
CTETRA      2376       1    1328    1330     552     779
CTETRA      2377       1     631    1056     573     215
CTETRA      2378       1    3271    3275    1069    1035
CTETRA      2379       1    1330     552     779     135
CTETRA      2380       1     127     221     135     128
CTETRA      2381       1     550     551     779     573
CTETRA      2382       1     383     481     985     830
CTETRA      2383       1     443     385     384     830
CTETRA      2384       1     383     385     481     830
CTETRA      2385       1     384     931     178     830
CTETRA      2386       1    4173    4174    1503    3200
CTETRA      2387       1     492     827     481     444
CTETRA      2388       1    4172    1504    1505    3149
CTETRA      2389       1     756    1070     754     766
CTETRA      2390       1     492     496     827     444
CTETRA      2391       1    1743    1758     398     386
CTETRA      2392       1    1491     594    1492     595
CTETRA      2393       1    2779    2782    2781     962
CTETRA      2394       1    2849    2992    3010     672
CTETRA      2395       1    1759      78      74     386
CTETRA      2396       1      78      74     386     149
CTETRA      2397       1    1758     556     398     386
CTETRA      2398       1    2992    3012    3011     875
CTETRA      2399       1     963     875     876     877
CTETRA      2400       1    1854    1870    1869     289
CTETRA      2401       1    2992    3001    2993    1045
CTETRA      2402       1    2992     876     673    1045
CTETRA      2403       1    3998    2073    2074    2871
CTETRA      2404       1    2948    2954    2949     508
CTETRA      2405       1    3578      28    3579     494
CTETRA      2406       1    2949    2954    2951     508
CTETRA      2407       1    3578    3579    2151     494
CTETRA      2408       1    1814    1815    1830     374
CTETRA      2409       1     427      45      46     535
CTETRA      2410       1    2866    1006    2872     884
CTETRA      2411       1     495     494      44     535
CTETRA      2412       1    4235    2947    1279     561
CTETRA      2413       1    2937     565    2941     569
CTETRA      2414       1    1251     567     568     561
CTETRA      2415       1    1246    1251    1250     561
CTETRA      2416       1    2913    2914    2943     564
CTETRA      2417       1     427     391     288     312
CTETRA      2418       1     427     857      46      47
CTETRA      2419       1    2612    2617    2613    1071
CTETRA      2420       1    2147      44     495     494
CTETRA      2421       1     750     557      48      50
CTETRA      2422       1    2867    2893    2891     270
CTETRA      2423       1    2611     862     596     265
CTETRA      2424       1    2147      53     557      44
CTETRA      2425       1    3579      53    2147     494
CTETRA      2426       1    2798     506    2817     883
CTETRA      2427       1    3579      28      53     494
CTETRA      2428       1    3579    3580     557      48
CTETRA      2429       1     308      63      66      72
CTETRA      2430       1     431      66      11      72
CTETRA      2431       1    2703     688    2715     196
CTETRA      2432       1    3918    1943    2696    2706
CTETRA      2433       1     271      66      63      64
CTETRA      2434       1     308      63     271      66
CTETRA      2435       1     273      63     723      73
CTETRA      2436       1     273      63      73      17
CTETRA      2437       1    2159    2160    2166     123
CTETRA      2438       1     343     832     349     342
CTETRA      2439       1    2166    2457    2167     123
CTETRA      2440       1    2453    2459    2454     123
CTETRA      2441       1    2076    2875    2873     342
CTETRA      2442       1    3947    2022    2655    2663
CTETRA      2443       1    2062    2076    2873     342
CTETRA      2444       1    2058    1055    2063     340
CTETRA      2445       1    2444    2473    2479     945
CTETRA      2446       1    2062     342     343     340
CTETRA      2447       1    2063    2075     342    1055
CTETRA      2448       1    2870     343    2873     342
CTETRA      2449       1    2859    2873    2870     343
CTETRA      2450       1    2408    2410    2409     660
CTETRA      2451       1    3775    3776    1494    2410
CTETRA      2452       1    3777    1485    2410    2411
CTETRA      2453       1    3897    2211    2217     653
CTETRA      2454       1    2217    2218    2223     653
CTETRA      2455       1     650     652    1072     781
CTETRA      2456       1    2326    2380     780     653
CTETRA      2457       1    1287     607     601     603
CTETRA      2458       1    2031    2663    2662     713
CTETRA      2459       1     608     607     606     223
CTETRA      2460       1    3983    3352    3984    1634
CTETRA      2461       1    3580    1640     575      48
CTETRA      2462       1    3408    3818    3409     557
CTETRA      2463       1    1276    1277    1286     601
CTETRA      2464       1    1664     369     985     986
CTETRA      2465       1    1664     985     262     986
CTETRA      2466       1    3201    3204    3203     665
CTETRA      2467       1    1664    1666     262     985
CTETRA      2468       1    3650    4123    3651     873
CTETRA      2469       1     930     931     384     985
CTETRA      2470       1    3818    3819    2319     557
CTETRA      2471       1     369     383     748     985
CTETRA      2472       1    4290     525    1577     530
CTETRA      2473       1    2282     205    2287     207
CTETRA      2474       1    1259     768     767     978
CTETRA      2475       1    3646    2288    2287      26
CTETRA      2476       1    1901     388     389     126
CTETRA      2477       1    3558    3577    4297    3647
CTETRA      2478       1    3984    3351    3350    1601
CTETRA      2479       1    1231     768    1073     770
CTETRA      2480       1    3031     769     768     770
CTETRA      2481       1    2628    2682     508     569
CTETRA      2482       1    4297    3577    4125      25
CTETRA      2483       1    1073     337     768     979
CTETRA      2484       1    4061    2226    2225    3121
CTETRA      2485       1    1182    1073     768     979
CTETRA      2486       1    4062    4063    2227    3120
CTETRA      2487       1    1182    1073    1231     768
CTETRA      2488       1     738     731     509     735
CTETRA      2489       1      57     839     838     559
CTETRA      2490       1     738     731     735     838
CTETRA      2491       1    3381    3550    3549    1660
CTETRA      2492       1    3230     902     905     316
CTETRA      2493       1    2133    2134     905     316
CTETRA      2494       1    1799    1800    1815    1074
CTETRA      2495       1    2116    2121    2120     908
CTETRA      2496       1    2534    2537    2535     967
CTETRA      2497       1    2103    2535     967     796
CTETRA      2498       1    2106    2111    3253     885
CTETRA      2499       1    2082    3252    2111     885
CTETRA      2500       1    2536    2537    2539     967
CTETRA      2501       1    2134    3232     905     316
CTETRA      2502       1    3295     984    1068     944
CTETRA      2503       1    2081    2083    2087     311
CTETRA      2504       1    2133     905     558     316
CTETRA      2505       1    2132    2133     558     316
CTETRA      2506       1    2132    2133    2135     558
CTETRA      2507       1    2069    2070    2071     270
CTETRA      2508       1    2069    2867     884     270
CTETRA      2509       1    2130    2132     351     316
CTETRA      2510       1    3994    3995    2071    2893
CTETRA      2511       1    3944    3945    2013    2689
CTETRA      2512       1      20      23      17      14
CTETRA      2513       1     627      15    1008      73
CTETRA      2514       1     440      15     305      71
CTETRA      2515       1    1025      15     440      71
CTETRA      2516       1    3954    2064    2058    2669
CTETRA      2517       1    1025     724      15      16
CTETRA      2518       1     724     920      15     898
CTETRA      2519       1    2865    2869    2866    1006
CTETRA      2520       1    1978    3045    1979     990
CTETRA      2521       1    3204     671     301     665
CTETRA      2522       1     666     766     671     538
CTETRA      2523       1    1979    3045    3046     614
CTETRA      2524       1    4023    1978    1974    3045
CTETRA      2525       1    1460    1465     300     538
CTETRA      2526       1    1920    1933    1921     189
CTETRA      2527       1    1465    1466     665     538
CTETRA      2528       1    2846    2999    2996     994
CTETRA      2529       1    2996    2999    2997     777
CTETRA      2530       1    1465    1470     301     665
CTETRA      2531       1    1377    2523     969     422
CTETRA      2532       1     720     412     819     383
CTETRA      2533       1    2500     969    2523     422
CTETRA      2534       1    3472    2303    3473     130
CTETRA      2535       1    2500    2558     970     422
CTETRA      2536       1    2500     690     969     422
CTETRA      2537       1     572     108     107     102
CTETRA      2538       1       1       2     110       3
CTETRA      2539       1     110     100     285       3
CTETRA      2540       1    1830    1831    1846    1075
CTETRA      2541       1    1837    1853    1852     722
CTETRA      2542       1    3466     405     390     126
CTETRA      2543       1    1868      58      54      13
CTETRA      2544       1     103     108     860     104
CTETRA      2545       1     237     119     100     120
CTETRA      2546       1    2785    1076    2792     795
CTETRA      2547       1    1764    1765    1779      89
CTETRA      2548       1     398     236     387     119
CTETRA      2549       1    1875     174    1057     792
CTETRA      2550       1    4274    3611    1620    1622
CTETRA      2551       1     519     571     107     397
CTETRA      2552       1    3449    1574    4290     525
CTETRA      2553       1    1831     930    1847    1075
CTETRA      2554       1    3591    3667     519     571
CTETRA      2555       1    3673    4293    3494    1558
CTETRA      2556       1     571     109     107     397
CTETRA      2557       1    3673    3508    4293    1561
CTETRA      2558       1    1739    1740    1755     940
CTETRA      2559       1    1754    1755    1770    1039
CTETRA      2560       1     477     704    1060     185
CTETRA      2561       1    3667    3668     519     571
CTETRA      2562       1    3591     571     519     397
CTETRA      2563       1    3598    1596     407     175
CTETRA      2564       1    3669     631     520     571
CTETRA      2565       1    3589     216     554     571
CTETRA      2566       1    3674    1769    1784    1077
CTETRA      2567       1    3676    1739    1754     940
CTETRA      2568       1     704     732    1060     185
CTETRA      2569       1    4279      57    3602     559
CTETRA      2570       1    3589     554    3669     571
CTETRA      2571       1     446     839     738     735
CTETRA      2572       1    3675    1768    3676     734
CTETRA      2573       1    1784    1785    1560     733
CTETRA      2574       1    1755    1756    1771     499
CTETRA      2575       1    3589    3670    3669     554
CTETRA      2576       1    3444     732    2273     813
CTETRA      2577       1    1423     483     320     321
CTETRA      2578       1    3442    2276    2272     455
CTETRA      2579       1    3092    3093    3195     483
CTETRA      2580       1    3593    2276     283     477
CTETRA      2581       1    2065    2072    2075     613
CTETRA      2582       1    1159    1078     121     965
CTETRA      2583       1    3092     319    3114     483
CTETRA      2584       1    3441    2275    3442     396
CTETRA      2585       1    1770    1786    1785     456
CTETRA      2586       1     556     833     741     835
CTETRA      2587       1    1408    1457     483     321
CTETRA      2588       1    1407    3119     482     483
CTETRA      2589       1    1682     743    1697     461
CTETRA      2590       1    1714    1715    1730     747
CTETRA      2591       1     886     251     430     363
CTETRA      2592       1    1602    1633     964      80
CTETRA      2593       1    3093    3114    3119     483
CTETRA      2594       1    1731    1732    1747     357
CTETRA      2595       1     158     161       1       6
CTETRA      2596       1     208     928     939     161
CTETRA      2597       1     467     161     324       2
CTETRA      2598       1    3572    1677    1678    1024
CTETRA      2599       1     324     257     928     161
CTETRA      2600       1     467     257     324     161
CTETRA      2601       1    1668    1669    1670     445
CTETRA      2602       1     256     939     258     161
CTETRA      2603       1     256     258     257     161
CTETRA      2604       1    3572    3622    1677    1024
CTETRA      2605       1     440     305     436     290
CTETRA      2606       1    3559    1638    1639     459
CTETRA      2607       1     628     914     436     437
CTETRA      2608       1     844     437     628     306
CTETRA      2609       1    3558    3647    3646      24
CTETRA      2610       1     628     437     436     305
CTETRA      2611       1     235     956      75      94
CTETRA      2612       1    2146    2150    2148     330
CTETRA      2613       1     731    1079     509     737
CTETRA      2614       1     212     736     731     737
CTETRA      2615       1     509    1079     516     737
CTETRA      2616       1     918     516    1079     737
CTETRA      2617       1     703     170     314     737
CTETRA      2618       1      55     170     703     736
CTETRA      2619       1    1913    1581    1586     225
CTETRA      2620       1    4257    4301    4265     151
CTETRA      2621       1    1613      55     703     840
CTETRA      2622       1    1701    1716     114     115
CTETRA      2623       1    1881    1897    1896     441
CTETRA      2624       1    1897    1913    1912     225
CTETRA      2625       1    1883      60    1898      59
CTETRA      2626       1    3469    2300    2299     227
CTETRA      2627       1     738    1079     731     840
CTETRA      2628       1    1612     559     447     840
CTETRA      2629       1    1612    1613     738     840
CTETRA      2630       1     439     436     888     438
CTETRA      2631       1    3522    1813    1812    1576
CTETRA      2632       1    1608     447      55     840
CTETRA      2633       1    1608    1612     447     840
CTETRA      2634       1     891     654     647     645
CTETRA      2635       1     778      33     389      32
CTETRA      2636       1    2288     269     405      32
CTETRA      2637       1     891      30     647      32
CTETRA      2638       1    1812    1573    1576     579
CTETRA      2639       1    2288    1080     206      32
CTETRA      2640       1    3522    3523    1813    1576
CTETRA      2641       1    3206     646     863     714
CTETRA      2642       1    1812    1828    1827     579
CTETRA      2643       1    1842     574     581     916
CTETRA      2644       1    2288     405    1080      32
CTETRA      2645       1    2288      26     269      32
CTETRA      2646       1    3206    3332    3323     646
CTETRA      2647       1     236     237     147     119
CTETRA      2648       1    2577    2580     831    1081
CTETRA      2649       1     418       8     285     286
CTETRA      2650       1    1165     461     257     259
CTETRA      2651       1     161       1       6       4
CTETRA      2652       1     745     466     237     100
CTETRA      2653       1     323     860     467       2
CTETRA      2654       1    1681    1541    1547     258
CTETRA      2655       1      99     101     466     468
CTETRA      2656       1    1831    1075     374     377
CTETRA      2657       1     127     786     221     120
CTETRA      2658       1     124     128     237     120
CTETRA      2659       1    1082     124     237     120
CTETRA      2660       1     127     124    1082     120
CTETRA      2661       1     964     238     915     125
CTETRA      2662       1     355     128     143     147
CTETRA      2663       1    3375     545    1521     263
CTETRA      2664       1     886     584     246     363
CTETRA      2665       1    1650    1028    1051     934
CTETRA      2666       1     584      91     868     364
CTETRA      2667       1     886     430     585     363
CTETRA      2668       1    3298    3319    3331     763
CTETRA      2669       1    1339    1341    1340     763
CTETRA      2670       1    1340    1349    1351     762
CTETRA      2671       1    1627     886    1629     585
CTETRA      2672       1    1627     584     886     586
CTETRA      2673       1    4150    1350    1349    3309
CTETRA      2674       1    3297    3309    3298     762
CTETRA      2675       1     343     349     339     340
CTETRA      2676       1    1354    2443    1355     945
CTETRA      2677       1    1625     584    1627      91
CTETRA      2678       1    3004    3006    3005     486
CTETRA      2679       1    1627      91     584     586
CTETRA      2680       1    3005    3006    3009     958
CTETRA      2681       1    4200    4201    1194    3005
CTETRA      2682       1    4201    4202    1195    3009
CTETRA      2683       1    1629     886     430     585
CTETRA      2684       1    1174     511     512     917
CTETRA      2685       1    1690    1535    1691     597
CTETRA      2686       1    2673    2675    2674     699
CTETRA      2687       1    1627      92      91     586
CTETRA      2688       1    1367    3323    1369     646
CTETRA      2689       1    1627     585    1628      92
CTETRA      2690       1    2876    2901    2898     765
CTETRA      2691       1    3357    3358    1170     886
CTETRA      2692       1    1689    1705    1704     248
CTETRA      2693       1    1656    1658     544     541
CTETRA      2694       1    3426     917    1535    1083
CTETRA      2695       1     788     725     537     380
CTETRA      2696       1    3459    1512    1509     629
CTETRA      2697       1    1658    1659     788     725
CTETRA      2698       1    4302    3348    3347     122
CTETRA      2699       1    2024    2028    2027     852
CTETRA      2700       1    2840    2845    2841     879
CTETRA      2701       1    3593    3665    3664     282
CTETRA      2702       1     788     537     260     380
CTETRA      2703       1     283     521       9       3
CTETRA      2704       1     284     397     521     286
CTETRA      2705       1     284     740     397     286
CTETRA      2706       1     109     286     285       3
CTETRA      2707       1    4142    3322    1369    3323
CTETRA      2708       1     521     397     109     286
CTETRA      2709       1    4143    4144    1369    3322
CTETRA      2710       1    1347     784    1348     782
CTETRA      2711       1    2450    2478    2475    1067
CTETRA      2712       1    2450    2451    2478    1052
CTETRA      2713       1     785     354    1068     984
CTETRA      2714       1     403     313     309     312
CTETRA      2715       1     288     290     312     435
CTETRA      2716       1     427     288     391     857
CTETRA      2717       1    3266    3292    3290     199
CTETRA      2718       1    2137    3232    3224     702
CTETRA      2719       1    2137    2140    2139     702
CTETRA      2720       1    3215    3230    3231     316
CTETRA      2721       1    4250    1320    1317    2886
CTETRA      2722       1    3223    3224    3230     702
CTETRA      2723       1    4109    2134    2131    3232
CTETRA      2724       1     431      11    1027     435
CTETRA      2725       1     426    1027     390     435
CTETRA      2726       1    2128    3233    2131     316
CTETRA      2727       1    2128    3216    3233     316
CTETRA      2728       1     902     566     351     316
CTETRA      2729       1     289     288     858     435
CTETRA      2730       1     431      11     435      72
CTETRA      2731       1     289      11      71     290
CTETRA      2732       1     168     960     166     408
CTETRA      2733       1    1596    1597    1610     166
CTETRA      2734       1    4130    4131    1396    3211
CTETRA      2735       1    1452    1458    3196     299
CTETRA      2736       1    4181    1452    1458    3196
CTETRA      2737       1     400     411     401     402
CTETRA      2738       1    1610     166     408     402
CTETRA      2739       1    3193    3194    3196     299
CTETRA      2740       1     175     402     183     162
CTETRA      2741       1    3798    1342    1338    2543
CTETRA      2742       1    1610     400    1611     402
CTETRA      2743       1    1596     407     175     402
CTETRA      2744       1    1611     400      52     402
CTETRA      2745       1    2233    3181    3182     817
CTETRA      2746       1    4137    4138    1375    3234
CTETRA      2747       1    4072    2220    3182    3183
CTETRA      2748       1    1061     923    1002     295
CTETRA      2749       1     292     294     227     295
CTETRA      2750       1    2220    2233    3182     817
CTETRA      2751       1    1002     227     441     295
CTETRA      2752       1    1838    1854    1853     724
CTETRA      2753       1    2298     227     292     294
CTETRA      2754       1    2632     606    2633     927
CTETRA      2755       1     961     876     962     485
CTETRA      2756       1    3015    1064     487     485
CTETRA      2757       1    1502     595    1505     473
CTETRA      2758       1    1192    3015     487     485
CTETRA      2759       1    1191    1192     487     485
CTETRA      2760       1    1203    1211    1204      34
CTETRA      2761       1    4206    1207    2965    3055
CTETRA      2762       1    1179     876    3014     485
CTETRA      2763       1    1179    1180     876     485
CTETRA      2764       1    1204    1209    1205     621
CTETRA      2765       1    1804    1805    1819     291
CTETRA      2766       1    4207    1205    1207    3055
CTETRA      2767       1    1207    2965    3055     621
CTETRA      2768       1    3467     390    1027     126
CTETRA      2769       1     283       9       8       3
CTETRA      2770       1    2993    3013    3012     876
CTETRA      2771       1    2028       5       7     852
CTETRA      2772       1    4263    2028       7     852
CTETRA      2773       1    4263     850    2027     852
CTETRA      2774       1    3995    3996    2069    2867
CTETRA      2775       1    2024    2025    1084     852
CTETRA      2776       1     834     617    1085     851
CTETRA      2777       1    2024     322    2028     852
CTETRA      2778       1     825      30     891      32
CTETRA      2779       1    3648    4125    3649      25
CTETRA      2780       1     489     486     958     883
CTETRA      2781       1     308     310      63      72
CTETRA      2782       1     309     313    1046     310
CTETRA      2783       1      63     310     306      72
CTETRA      2784       1    3913    3914    1942    2805
CTETRA      2785       1    1660     788    1661     260
CTETRA      2786       1    1942    1950    1949     949
CTETRA      2787       1    2973    2995    3002     795
CTETRA      2788       1    1950    2805    2804     948
CTETRA      2789       1     961     877     876    1045
CTETRA      2790       1     489     958     505     883
CTETRA      2791       1    1200    2800    2801     505
CTETRA      2792       1    1660    1662    1086     260
CTETRA      2793       1    1087     166     167     959
CTETRA      2794       1     368     260     370     375
CTETRA      2795       1    1662     368    1086     260
CTETRA      2796       1    3925    1968    1957    2748
CTETRA      2797       1    1966    2746    1971     624
CTETRA      2798       1     821     788     537     260
CTETRA      2799       1     372    1075     537     375
CTETRA      2800       1    1658     788    1660     260
CTETRA      2801       1    3380    1660    3381    1086
CTETRA      2802       1    4277    3606    3605     446
CTETRA      2803       1    2618     105    2619    1016
CTETRA      2804       1    3831     786     572     550
CTETRA      2805       1    3831     572    2618     550
CTETRA      2806       1    3972    3373    3372      55
CTETRA      2807       1    2752     961    2792    1076
CTETRA      2808       1    2895    2901    2896    1014
CTETRA      2809       1     370     260     821     375
CTETRA      2810       1    2896    2900    2897     764
CTETRA      2811       1    2896    2901    2900     764
CTETRA      2812       1    1326    2833    1088     765
CTETRA      2813       1    2861     668    2923     823
CTETRA      2814       1    1891    1892    1907     911
CTETRA      2815       1    2599     884     619     346
CTETRA      2816       1     704     175     185     162
CTETRA      2817       1    2866    2891    2879     884
CTETRA      2818       1    4263    1087    1599     176
CTETRA      2819       1    2546    2549    2547     641
CTETRA      2820       1    2104    2116    2115     796
CTETRA      2821       1    1599    1087     166     176
CTETRA      2822       1    1598     166     175     176
CTETRA      2823       1     202     938     172     173
CTETRA      2824       1     896     400     447     173
CTETRA      2825       1    1338    1339    1355    2444
CTETRA      2826       1     896     136     929     932
CTETRA      2827       1     170     136     173     139
CTETRA      2828       1     202     172     138     173
CTETRA      2829       1    3375    1654     545     263
CTETRA      2830       1    2120    2123    2549     908
CTETRA      2831       1    1029     527     526     529
CTETRA      2832       1     457     528     263     526
CTETRA      2833       1    3852    2103    2535    2537
CTETRA      2834       1    2534    2539    2537     967
CTETRA      2835       1     545     525     263     529
CTETRA      2836       1    1179    1413    3018     875
CTETRA      2837       1    1844    1029     547     527
CTETRA      2838       1    4123    2828     548     549
CTETRA      2839       1    2490    2491     198     200
CTETRA      2840       1    3868    2454    2166     123
CTETRA      2841       1    3866    3867    2079    2492
CTETRA      2842       1     980      29     494     549
CTETRA      2843       1    2453    2461     145     218
CTETRA      2844       1    2732    2738    2737    1001
CTETRA      2845       1    3881    3882    2239    2398
CTETRA      2846       1     494      29      46     549
CTETRA      2847       1     980     494     330     549
CTETRA      2848       1    2828     330     548     549
CTETRA      2849       1    4124     980    2827     549
CTETRA      2850       1    2388    2391    2389     809
CTETRA      2851       1    4123     548     873     549
CTETRA      2852       1      28      25      24      27
CTETRA      2853       1    2241    2243     611     809
CTETRA      2854       1    3649    4124     873      25
CTETRA      2855       1    3476    2296    2279     791
CTETRA      2856       1    1973    1013     990     998
CTETRA      2857       1    3586    3672    3587     150
CTETRA      2858       1    4257    3672    4301     151
CTETRA      2859       1    3584     142    1603     151
CTETRA      2860       1    1787     835    1562     456
CTETRA      2861       1     421     556     418     224
CTETRA      2862       1    3584     222     142     151
CTETRA      2863       1    3589    3590    2277     216
CTETRA      2864       1     222     151     150     144
CTETRA      2865       1     273     274     723      63
CTETRA      2866       1    3585    3586    2271     222
CTETRA      2867       1    3341     860    3342     101
CTETRA      2868       1    3590     216     571     397
CTETRA      2869       1     627     629      15     305
CTETRA      2870       1    1743    1759    1758     386
CTETRA      2871       1      54    1025      71      14
CTETRA      2872       1    1772    1773    1788     741
CTETRA      2873       1    3587    2278    2267     150
CTETRA      2874       1    1232    2702    2721    2729
CTETRA      2875       1      19      16      22      14
CTETRA      2876       1    1728    1744     398     236
CTETRA      2877       1    3889    3890    2252    2387
CTETRA      2878       1    1008      15     281     898
CTETRA      2879       1     273    1008     881      73
CTETRA      2880       1    1008      15     881      73
CTETRA      2881       1    3888    2251    2249    2344
CTETRA      2882       1      20      23     353      64
CTETRA      2883       1    3797    2543    1338    2545
CTETRA      2884       1    1306    1309    2609     304
CTETRA      2885       1      58      12      22      14
CTETRA      2886       1     723     628      73     306
CTETRA      2887       1    2741    2742    2745     616
CTETRA      2888       1    3270    1031    3278    1032
CTETRA      2889       1    1089    1090    1031    1032
CTETRA      2890       1    1030     974     698    1032
CTETRA      2891       1    3882    2239    2398    2402
CTETRA      2892       1    2162     900     801     192
CTETRA      2893       1    2152     268    2197     802
CTETRA      2894       1    4078    4079    2163    3153
CTETRA      2895       1    3154    3166     268     802
CTETRA      2896       1    1333     974    1334    1032
CTETRA      2897       1    1333    1441     698    1032
CTETRA      2898       1    3269     974    1031    1032
CTETRA      2899       1    2488    2493     808     229
CTETRA      2900       1    4156    1443    1442    1032
CTETRA      2901       1    2102    3265    3316     231
CTETRA      2902       1    3312    3313     785     632
CTETRA      2903       1    2912    1091     878     565
CTETRA      2904       1    4156    1442    3307    1032
CTETRA      2905       1    1089    1031    1030    1032
CTETRA      2906       1    2015     933     708    1053
CTETRA      2907       1    1792     705    1553     707
CTETRA      2908       1    3437    1553     706     707
CTETRA      2909       1    3696    1306    1309    2609
CTETRA      2910       1    1777     576     705     707
CTETRA      2911       1    3437     706     956     707
CTETRA      2912       1    2910    2911    2959     415
CTETRA      2913       1    1554     956      94     707
CTETRA      2914       1    2011    2958    2957     936
CTETRA      2915       1    1999    2002    2962     518
CTETRA      2916       1     956     957      94     707
CTETRA      2917       1    1776     957     997     707
CTETRA      2918       1    1962    2703    1963     688
CTETRA      2919       1      95      85      84      86
CTETRA      2920       1    3695    3696    1309    2608
CTETRA      2921       1    1955    3061     209     204
CTETRA      2922       1    4031    1955    1967    3061
CTETRA      2923       1     583      92     576      85
CTETRA      2924       1     585      93     578      92
CTETRA      2925       1      83      93      87      86
CTETRA      2926       1     196     893     211     657
CTETRA      2927       1    1955    3061    1958     209
CTETRA      2928       1    4031    3061    1967    3062
CTETRA      2929       1    1963     688    2703     196
CTETRA      2930       1    1955    1960    1956     204
CTETRA      2931       1    1613    1079     738     840
CTETRA      2932       1    3370    1613     703    1079
CTETRA      2933       1    1615    1092     738    1079
CTETRA      2934       1    3683     655    3684    1062
CTETRA      2935       1    3685    1843    3686     574
CTETRA      2936       1    3533    3534    1908    1582
CTETRA      2937       1    3473    2293     721     130
CTETRA      2938       1    1909    1910    1588     131
CTETRA      2939       1     240     509    1092    1079
CTETRA      2940       1    3472    2303     130      43
CTETRA      2941       1     721     382     132     413
CTETRA      2942       1    1061     293     923     295
CTETRA      2943       1    1615     918    1617     240
CTETRA      2944       1    1833    1848     930     384
CTETRA      2945       1    1805    1820    1819     291
CTETRA      2946       1    2699    2700    2741    1093
CTETRA      2947       1    3506    1557    1786    1562
CTETRA      2948       1    1533    1094    1078     743
CTETRA      2949       1    1955    1967    3061     204
CTETRA      2950       1    1095     516     314     737
CTETRA      2951       1    3443    2274    2273     732
CTETRA      2952       1    3600      52    2264     404
CTETRA      2953       1    2254    2273     407     813
CTETRA      2954       1    3567    1665    1663     749
CTETRA      2955       1    3443    1060    2274     732
CTETRA      2956       1     896     447     213     736
CTETRA      2957       1    1771    1772    1787     456
CTETRA      2958       1    1599    1087    1600     959
CTETRA      2959       1     240     516     509    1079
CTETRA      2960       1    3370     703     918    1079
CTETRA      2961       1     728    1096     174     727
CTETRA      2962       1    3590    2277     216     397
CTETRA      2963       1    3507    1785    1557    1560
CTETRA      2964       1    3674    1039    1769    1077
CTETRA      2965       1     734     731     213     838
CTETRA      2966       1    3673    3674    1784    1077
CTETRA      2967       1    3508    1784    1560    1561
CTETRA      2968       1    1754    1770    1769    1039
CTETRA      2969       1    1718    1734    1733    1026
CTETRA      2970       1    2132    2496     351     558
CTETRA      2971       1    3614     895    1624      97
CTETRA      2972       1     542     934     727     527
CTETRA      2973       1    3425    1168    1172     246
CTETRA      2974       1    3474    2294    3475     719
CTETRA      2975       1    1780      89     648     636
CTETRA      2976       1    1622    1623    1624     868
CTETRA      2977       1    1694     939     208     134
CTETRA      2978       1     655    1063     450     727
CTETRA      2979       1     168     408     166     165
CTETRA      2980       1    1607    1611    1609     400
CTETRA      2981       1     655     450     934     727
CTETRA      2982       1     728     739     174    1096
CTETRA      2983       1     174    1096    1063     727
CTETRA      2984       1    1600    1087     167     959
CTETRA      2985       1    3387    1507    1530     827
CTETRA      2986       1    1662    1663    1664     369
CTETRA      2987       1     720     819     820     749
CTETRA      2988       1    3037    3038    1000     336
CTETRA      2989       1     769    1097     333     336
CTETRA      2990       1    1000     344    1018     336
CTETRA      2991       1     109     119     224     217
CTETRA      2992       1     416       1     110     285
CTETRA      2993       1     556     833     387     149
CTETRA      2994       1    3535    3536    1906    1583
CTETRA      2995       1     858     288     391     435
CTETRA      2996       1    3407    3408    1511     555
CTETRA      2997       1    1897    1912     227     225
CTETRA      2998       1      28      24     453      30
CTETRA      2999       1    1856    1872    1871     825
CTETRA      3000       1    3558    3577    3647      24
CTETRA      3001       1     214     216     833     387
CTETRA      3002       1     421     556     224     387
CTETRA      3003       1    3577    4115    4125     980
CTETRA      3004       1    4115    2150    2827     980
CTETRA      3005       1    3649     873     778     269
CTETRA      3006       1    3649    4125    4124      25
CTETRA      3007       1    3578    2151     980     494
CTETRA      3008       1     556     833     224     387
CTETRA      3009       1    1639    1642    1641      24
CTETRA      3010       1    1917    1918    1593    1080
CTETRA      3011       1     205     459     453     454
CTETRA      3012       1     553     348     862     104
CTETRA      3013       1     348     296     322     852
CTETRA      3014       1    3626    3627    2304     889
CTETRA      3015       1    3473    2303    2304     130
CTETRA      3016       1    1872     825     581     891
CTETRA      3017       1     859       9     523     852
CTETRA      3018       1     519     284     107     106
CTETRA      3019       1    4210    1216    3048    3075
CTETRA      3020       1     348     862     104     523
CTETRA      3021       1    1638    1642    1639      24
CTETRA      3022       1    3975    3367    3366    1617
CTETRA      3023       1    4277    3605    1614     446
CTETRA      3024       1     284     859       9     523
CTETRA      3025       1    1034     523     348     852
CTETRA      3026       1     836     513     314     516
CTETRA      3027       1      55     736     703     840
CTETRA      3028       1     514     516     513     510
CTETRA      3029       1     836     516     509     510
CTETRA      3030       1    3048      39    3049      35
CTETRA      3031       1     240     509     516     510
CTETRA      3032       1    3533    1908    1909    1582
CTETRA      3033       1    1435    2370     639     677
CTETRA      3034       1    3469    1586    1581     225
CTETRA      3035       1    1433    1435     639     677
CTETRA      3036       1    1896    1912    1911     171
CTETRA      3037       1    1420    1426     675     676
CTETRA      3038       1    2775     679    2778     676
CTETRA      3039       1    3470    3471    1585     171
CTETRA      3040       1    3470    2298    3471     171
CTETRA      3041       1    2331     676     680     677
CTETRA      3042       1     638    1098     946     677
CTETRA      3043       1    1429     638     946     677
CTETRA      3044       1    3529    3530    1912    1586
CTETRA      3045       1    1429     946    1430     677
CTETRA      3046       1    1430     683     675     677
CTETRA      3047       1    3481    3482    1682    1547
CTETRA      3048       1    3480    1681    1680    1541
CTETRA      3049       1    3480    3481    1681    1541
CTETRA      3050       1    3688    1577    1574     525
CTETRA      3051       1    2823     432     350    1007
CTETRA      3052       1    1401     350    1403    1007
CTETRA      3053       1     581     916     574     531
CTETRA      3054       1      49     288      45      47
CTETRA      3055       1    4290    1574    1577     525
CTETRA      3056       1    1401    2823     350    1007
CTETRA      3057       1    1403     278     759    1007
CTETRA      3058       1    1397     847    1099    1007
CTETRA      3059       1     892     842     419     846
CTETRA      3060       1    1399    1400     759     847
CTETRA      3061       1    1395    1099    2305    1007
CTETRA      3062       1    1649    1651    1652     528
CTETRA      3063       1    3374    1521    1523     263
CTETRA      3064       1    3374    1523    4285     457
CTETRA      3065       1    3463    1522    4290     530
CTETRA      3066       1    1813     599    1828     579
CTETRA      3067       1    3687     536    1828     599
CTETRA      3068       1    1395    1397    1099    1007
CTETRA      3069       1     432     691     434    1007
CTETRA      3070       1    4211    1214    1216    3075
CTETRA      3071       1    4171    4172    1505    3149
CTETRA      3072       1    1505    3148    3149     595
CTETRA      3073       1     434    1099     847    1007
CTETRA      3074       1    2358     472     666    1070
CTETRA      3075       1    1488    1503    3198     470
CTETRA      3076       1     472     667     666     471
CTETRA      3077       1    1394    1099    1397     847
CTETRA      3078       1      55     170     736     173
CTETRA      3079       1    1176     202     172     138
CTETRA      3080       1    3429    1177    1175     138
CTETRA      3081       1    3769    2338    2414     667
CTETRA      3082       1    3768    3769    1478    2338
CTETRA      3083       1    3768    2338    1478    2350
CTETRA      3084       1     870     600     594    1100
CTETRA      3085       1    3373      55     202     138
CTETRA      3086       1    3373     202    1176     138
CTETRA      3087       1    3782    2427    1451    2428
CTETRA      3088       1    3781    1437    1461    2428
CTETRA      3089       1    1437    1462    1461    1101
CTETRA      3090       1    1182     768    1254     979
CTETRA      3091       1    2568     337     979     978
CTETRA      3092       1    1410    1416    3017    1044
CTETRA      3093       1    1182    2727    1073     979
CTETRA      3094       1    2848     673    2849    1102
CTETRA      3095       1    1180     962     876     485
CTETRA      3096       1    2569     337    1073     979
CTETRA      3097       1    1411    1414    1415     924
CTETRA      3098       1     680    1103     683     679
CTETRA      3099       1    3217    3228    3227     759
CTETRA      3100       1    1400    1403    1404     759
CTETRA      3101       1    1396    3217    3211     847
CTETRA      3102       1    3720    1253    2568     979
CTETRA      3103       1    4129    1399    1404    3218
CTETRA      3104       1    4128    1404    2837    3218
CTETRA      3105       1    2568     337    2569     979
CTETRA      3106       1    3720    2727    1257     979
CTETRA      3107       1    4133    4134    1387    3242
CTETRA      3108       1    3027    3028     769     770
CTETRA      3109       1    4134    4135    1384    3243
CTETRA      3110       1    3240    3243    3242     423
CTETRA      3111       1    3240    3242    1009     423
CTETRA      3112       1    4149    4150    1349    3309
CTETRA      3113       1    3302    3308    3309     783
CTETRA      3114       1    1184    1230    1104     770
CTETRA      3115       1    3303    3308     783     784
CTETRA      3116       1    4151    1346    1350    3308
CTETRA      3117       1    2879     270    2888    1049
CTETRA      3118       1    1304    1308    1307     298
CTETRA      3119       1    1304     304     303     298
CTETRA      3120       1    3027     769    3031     770
CTETRA      3121       1    1255    3031     768     770
CTETRA      3122       1    1244    1281    1283     602
CTETRA      3123       1    1183    1255     768     770
CTETRA      3124       1    3336     168     960     959
CTETRA      3125       1    2914     604    2947     561
CTETRA      3126       1    3969    3336    3335     960
CTETRA      3127       1    2631    2642     926     563
CTETRA      3128       1    1182    1231    1183     768
CTETRA      3129       1     164     167     166     959
CTETRA      3130       1    3026     769     767     768
CTETRA      3131       1     335     334     681     682
CTETRA      3132       1    1597     960     166     959
CTETRA      3133       1     166     408     163     165
CTETRA      3134       1    3734    3735    1219    2691
CTETRA      3135       1    1217    1218    1219      35
CTETRA      3136       1    1218    1220    1219      40
CTETRA      3137       1     400     408     411     402
CTETRA      3138       1    3334    3335     938     960
CTETRA      3139       1    1208     621    1209     490
CTETRA      3140       1    1610     960     400     408
CTETRA      3141       1    1372     422    1376     972
CTETRA      3142       1    1372    2501    1377     422
CTETRA      3143       1    4205    4206    1206    2965
CTETRA      3144       1    1206    2965    1207     620
CTETRA      3145       1    4204    1206    1187    2976
CTETRA      3146       1    1744      78    1759     386
CTETRA      3147       1    4260     128     125     122
CTETRA      3148       1    1371    1374    1372     972
CTETRA      3149       1    3344    3831    3830     786
CTETRA      3150       1    2558    2565    1105     972
CTETRA      3151       1    3656    4116    3657      21
CTETRA      3152       1    2300     522     981     227
CTETRA      3153       1    1644     901    1645     155
CTETRA      3154       1    3448      20      23     353
CTETRA      3155       1    1372    2566    2501     972
CTETRA      3156       1     672    1044     924    1040
CTETRA      3157       1    1214    3075    3073      37
CTETRA      3158       1     272     279      63     310
CTETRA      3159       1    1348    3310    3306     784
CTETRA      3160       1    4152    4153    1348    3310
CTETRA      3161       1    1410     924    1044    1040
CTETRA      3162       1    3010     875    3011    1040
CTETRA      3163       1    1413    3018     875    1040
CTETRA      3164       1    4194    1413    1410    1040
CTETRA      3165       1    3017    1044     672    1040
CTETRA      3166       1    4135    1381    1384    3243
CTETRA      3167       1    3010    3017     672    1040
CTETRA      3168       1    4194    1410    3017    1040
CTETRA      3169       1     296       7       9       4
CTETRA      3170       1    2024    1106     322     852
CTETRA      3171       1    2033     596     861     879
CTETRA      3172       1    3181    3184    3185     817
CTETRA      3173       1    1107     861     596     879
CTETRA      3174       1    2220     867    2237     817
CTETRA      3175       1    4168    3156    1500    3157
CTETRA      3176       1    4169    3155    1499    3156
CTETRA      3177       1    1485    2410     864     660
CTETRA      3178       1    1034     348    1106     852
CTETRA      3179       1    1495    1505    1502     595
CTETRA      3180       1    4170    4171    1505    3148
CTETRA      3181       1    3048    3049    3075      35
CTETRA      3182       1    1107     348     861    1106
CTETRA      3183       1      39      34      42      35
CTETRA      3184       1    1034     348    1107    1106
CTETRA      3185       1     440     920     436     305
CTETRA      3186       1      54      11     289      56
CTETRA      3187       1    1096     450    1063     727
CTETRA      3188       1    4190    4191    1425    3116
CTETRA      3189       1     655     449     582     454
CTETRA      3190       1    2701    2721    2739     678
CTETRA      3191       1    1221    1222    1227     504
CTETRA      3192       1    3063    3064    1108    1093
CTETRA      3193       1    1227    1234    1233     504
CTETRA      3194       1    2700    2716    2718     658
CTETRA      3195       1    2716    2719    2718     658
CTETRA      3196       1    1108     503     658    1093
CTETRA      3197       1    2700    2718    2701     503
CTETRA      3198       1    3064    3065    3076     326
CTETRA      3199       1    1028     448     207     450
CTETRA      3200       1    1221    1226    2710     504
CTETRA      3201       1    2739    2742    2741     790
CTETRA      3202       1     124     121     915     125
CTETRA      3203       1    3021    3065    3066     790
CTETRA      3204       1      74      76     186     149
CTETRA      3205       1     124     915    1078     237
CTETRA      3206       1     236     747     238     237
CTETRA      3207       1    4038    1946    1945    2985
CTETRA      3208       1     747     742     915     237
CTETRA      3209       1      99     466     100     120
CTETRA      3210       1    2948     508     936     569
CTETRA      3211       1     563     565     567     562
CTETRA      3212       1    2938    2939    2954     856
CTETRA      3213       1    1331     221     779     143
CTETRA      3214       1      79      75      74      77
CTETRA      3215       1    3672     152     150     151
CTETRA      3216       1     355     238     964     125
CTETRA      3217       1     360      76     235      77
CTETRA      3218       1     556      74     186     149
CTETRA      3219       1     186     187     235      76
CTETRA      3220       1    3447      20    3448     353
CTETRA      3221       1    3448    4116    4126    1402
CTETRA      3222       1    4127    1404    1402     278
CTETRA      3223       1      74      75     187      76
CTETRA      3224       1    3558    1641    3577      24
CTETRA      3225       1    4124    4125    2827     980
CTETRA      3226       1    1204     490      39      34
CTETRA      3227       1    3409    1525    1506     575
CTETRA      3228       1     273      73     881      17
CTETRA      3229       1    2838     272     759     278
CTETRA      3230       1    2757    1109    1103     674
CTETRA      3231       1    2756    2757    2769     674
CTETRA      3232       1    2179    1109    2755     188
CTETRA      3233       1    1404    2837     759     278
CTETRA      3234       1    3535    1906    1907    1583
CTETRA      3235       1    2177    2184    1110     803
CTETRA      3236       1    1696     256     939     258
CTETRA      3237       1    2769    2772    2770     674
CTETRA      3238       1    3101    3104    3103    1111
CTETRA      3239       1    2755    2765    2756     803
CTETRA      3240       1    3096    3105    3101     807
CTETRA      3241       1     432     278     350    1007
CTETRA      3242       1    1403    1404     759     278
CTETRA      3243       1     274     432     272     278
CTETRA      3244       1    1403     350     278    1007
CTETRA      3245       1    2838     272    3219     759
CTETRA      3246       1    2848    3100    3102     995
CTETRA      3247       1    1180     875     876     962
CTETRA      3248       1    2176    2191    2765     803
CTETRA      3249       1    1449    2426    2425     955
CTETRA      3250       1    3687    1799    1814    1112
CTETRA      3251       1    3064    3065     326     790
CTETRA      3252       1    3022    3038    3035     501
CTETRA      3253       1    2332    2425    1089     955
CTETRA      3254       1    1449    2425    1450     955
CTETRA      3255       1    1440    1089    1446     955
CTETRA      3256       1    3687     751     525    1112
CTETRA      3257       1    1446    1089    1090     955
CTETRA      3258       1    1448    1069     953     955
CTETRA      3259       1    3942    3943    2007    2688
CTETRA      3260       1    1448     953    1449     955
CTETRA      3261       1    1222     658    1108    1010
CTETRA      3262       1    2049    2660    2667     339
CTETRA      3263       1    2658    2659    1113     669
CTETRA      3264       1    3688    4294    1574    1577
CTETRA      3265       1    1108    1010     503     504
CTETRA      3266       1    2052    2668    2058     340
CTETRA      3267       1    2049    2052    2051     339
CTETRA      3268       1    2666     339     349     340
CTETRA      3269       1    2630    2631    2656     565
CTETRA      3270       1    1212    2709     658    1010
CTETRA      3271       1    2709    2718     658    1010
CTETRA      3272       1    1221    2710    1010     504
CTETRA      3273       1    2718     503     658    1010
CTETRA      3274       1    2710     503    1010     504
CTETRA      3275       1    4056    2201    2195    3094
CTETRA      3276       1    2072    2075     613    1006
CTETRA      3277       1    2578    2666     831    1055
CTETRA      3278       1    2384    2389    2390     371
CTETRA      3279       1    3854    2114    2112    2536
CTETRA      3280       1     983     721     382     719
CTETRA      3281       1    3955    2579    2064    2669
CTETRA      3282       1    2578     831     613    1055
CTETRA      3283       1    1287    2919     607     603
CTETRA      3284       1     668     607     608     223
CTETRA      3285       1    3808    3809    1380    2523
CTETRA      3286       1    1289    1292     570     853
CTETRA      3287       1    1289     853     570     223
CTETRA      3288       1    2575     570     822     223
CTETRA      3289       1    1286    1287     607     601
CTETRA      3290       1     606     607     601     223
CTETRA      3291       1     650     652     781     653
CTETRA      3292       1    2245     809    2385     371
CTETRA      3293       1     668     853     607     223
CTETRA      3294       1    2226    3120    2227     611
CTETRA      3295       1    2389    2391    2390     818
CTETRA      3296       1    1114     670     890     359
CTETRA      3297       1    2346    2347    2391     359
CTETRA      3298       1    2390    2391    2392     818
CTETRA      3299       1    1472     666    2350     667
CTETRA      3300       1    1285    1289     570     223
CTETRA      3301       1    2330    2368    2370    1098
CTETRA      3302       1    2328     805    1115     500
CTETRA      3303       1    3756    3757    1435    2370
CTETRA      3304       1    3408    1511     555     750
CTETRA      3305       1    1885    1901    1900     388
CTETRA      3306       1    3838    3839    2147    2319
CTETRA      3307       1    1285    1289    1288     570
CTETRA      3308       1     124     125     128     122
CTETRA      3309       1    3346     127    3829     122
CTETRA      3310       1    3624    2303    2301     137
CTETRA      3311       1    1865    1880    1058    1022
CTETRA      3312       1    3571    3624    1678    1023
CTETRA      3313       1    3572    3622    3573    1677
CTETRA      3314       1    2152    2157    2153     268
CTETRA      3315       1    3347     121     124     122
CTETRA      3316       1     551    1015    1011     765
CTETRA      3317       1    3831    3832    2618     572
CTETRA      3318       1     121     399     965     915
CTETRA      3319       1    3591    2275    2277     397
CTETRA      3320       1    3343    3831    3344     201
CTETRA      3321       1     631    1056     882     573
CTETRA      3322       1    2025    2844    2845    1084
CTETRA      3323       1    3592    3593    2276     283
CTETRA      3324       1    3835    2315    2309     347
CTETRA      3325       1    3665    2842    2843     859
CTETRA      3326       1    3344    3831     786     201
CTETRA      3327       1    2152    2197    2196     802
CTETRA      3328       1    2153    2198    2197     801
CTETRA      3329       1    2420    2421     409     328
CTETRA      3330       1    4259     135    1331     221
CTETRA      3331       1    2184    2187    2186    1110
CTETRA      3332       1    2186    3106    3110    1110
CTETRA      3333       1     152     779     215     143
CTETRA      3334       1     147     220     387     217
CTETRA      3335       1    4051    4052    2186    3110
CTETRA      3336       1    3846    2129    2132    2551
CTETRA      3337       1    3346     124     127     122
CTETRA      3338       1    4260     355     125     128
CTETRA      3339       1    3829     127     135     122
CTETRA      3340       1    3216    3262    3264     566
CTETRA      3341       1    2841    1107    2908     879
CTETRA      3342       1     641     643     796     793
CTETRA      3343       1    2840    2908    2907     879
CTETRA      3344       1    2117    3262    2122     794
CTETRA      3345       1    2046    2907     264     879
CTETRA      3346       1    3313     230     632     231
CTETRA      3347       1    2482     354    2487     228
CTETRA      3348       1    2094    2097    2096     228
CTETRA      3349       1    2482     228    2494     587
CTETRA      3350       1    2099    3318    2100     633
CTETRA      3351       1    1107     861     879    1106
CTETRA      3352       1    1107     879    1084    1106
CTETRA      3353       1    4096    3210    2087    3315
CTETRA      3354       1    4097    2082    2087    3210
CTETRA      3355       1    2083    2100    3314     633
CTETRA      3356       1    2039    2046     264     879
CTETRA      3357       1    3328     311     633    1003
CTETRA      3358       1    2000    2001    2003     816
CTETRA      3359       1    2950    2961     814     695
CTETRA      3360       1    1988    1989    2000     518
CTETRA      3361       1    1989    1995    2679     518
CTETRA      3362       1    2039     264     596     879
CTETRA      3363       1    2675    2679    2678     696
CTETRA      3364       1    1988    2000    1999     518
CTETRA      3365       1    3628    3629    2297     982
CTETRA      3366       1    2157    3154    3153     268
CTETRA      3367       1    1061      38    1022     294
CTETRA      3368       1     543      43     294    1021
CTETRA      3369       1    1892    1893    1908     190
CTETRA      3370       1    1862    1863     412     383
CTETRA      3371       1      43      38     294    1021
CTETRA      3372       1    1839    1854     724     440
CTETRA      3373       1    1452    3195    1457     299
CTETRA      3374       1    1853    1854    1869    1025
CTETRA      3375       1     293    1020    1024    1021
CTETRA      3376       1    3624     137    1678    1023
CTETRA      3377       1     137    1024    1023    1021
CTETRA      3378       1    1022     129     132    1021
CTETRA      3379       1    3521    3522    1812    1573
CTETRA      3380       1      31      51      48      47
CTETRA      3381       1    3688    1813    3523    1577
CTETRA      3382       1    1843     574     916     536
CTETRA      3383       1    1812    1813    1828     579
CTETRA      3384       1    3687    3688     530     599
CTETRA      3385       1    2048     339    2051    1116
CTETRA      3386       1    3494    3495    1798    1559
CTETRA      3387       1    2042    1117     897    1116
CTETRA      3388       1    1798    1558    1559     810
CTETRA      3389       1    1118     339     897    1116
CTETRA      3390       1    2042    2047    1117    1116
CTETRA      3391       1    3677    1753    1738     213
CTETRA      3392       1    3602      52    1607     559
CTETRA      3393       1    1452    3196    3194     299
CTETRA      3394       1    1268    2857     517     977
CTETRA      3395       1    3025    3029     767     977
CTETRA      3396       1    4287    2254    2264     813
CTETRA      3397       1    3674    1783    3675     276
CTETRA      3398       1    4287    2264    2263     797
CTETRA      3399       1     940     183     404     411
CTETRA      3400       1    3347    3348    1159     121
CTETRA      3401       1    1698    1699    1714     742
CTETRA      3402       1    1602    1604    1606     964
CTETRA      3403       1     114     965     744     117
CTETRA      3404       1    1683    1533    1684     744
CTETRA      3405       1    4182    1452    3194    3195
CTETRA      3406       1    3348    1604    3349     399
CTETRA      3407       1    1266     767    3029     977
CTETRA      3408       1    4226    3029    3030     977
CTETRA      3409       1    2857    3030     517     977
CTETRA      3410       1    4226    3030    1267     977
CTETRA      3411       1    3025     767     517     977
CTETRA      3412       1    3085    1119     976     663
CTETRA      3413       1    3639    3640    2283    1051
CTETRA      3414       1     236     742     747     237
CTETRA      3415       1    3562    1650    3641    1051
CTETRA      3416       1    3561    1652    3643    1028
CTETRA      3417       1    1799    1815    1814    1074
CTETRA      3418       1    3375    3553    3376    1654
CTETRA      3419       1     236     747      78     238
CTETRA      3420       1     964     915     238     907
CTETRA      3421       1    4270    1628    1630      92
CTETRA      3422       1    4257     151     142     144
CTETRA      3423       1    2179    1110    2184     803
CTETRA      3424       1    2188    2764     803     804
CTETRA      3425       1    3468    2280    3469     522
CTETRA      3426       1    2177    1110    1111     803
CTETRA      3427       1    3528    3529    1913    1581
CTETRA      3428       1    3528    1581    1914    1594
CTETRA      3429       1     545     751     525     529
CTETRA      3430       1    1650    1655    1654     934
CTETRA      3431       1    3686    1829    1844    1029
CTETRA      3432       1     916     536     530     599
CTETRA      3433       1    3687    3688     525     530
CTETRA      3434       1    3374    3554    3553    1649
CTETRA      3435       1    2761     803    2764     804
CTETRA      3436       1    1437    1438    1462     953
CTETRA      3437       1    2755    2756    1109     803
CTETRA      3438       1    3271    3272    3279    1069
CTETRA      3439       1    1462    1463    1469    1035
CTETRA      3440       1    3273    3277    3278    1090
CTETRA      3441       1    1437    1451    1438     953
CTETRA      3442       1    3784    1449    1451    2426
CTETRA      3443       1    2177    1111    2178     804
CTETRA      3444       1    2756    2761    1109     803
CTETRA      3445       1    2761    2763     805     804
CTETRA      3446       1    2188    2763    2764     804
CTETRA      3447       1     289     290     288     435
CTETRA      3448       1    4134    1384    3242    3243
CTETRA      3449       1     427      45     288      47
CTETRA      3450       1     394      45     427     535
CTETRA      3451       1     393     427     394      45
CTETRA      3452       1    3702    2589    1288     570
CTETRA      3453       1     392     630     393      45
CTETRA      3454       1    3701    1291    1294    2591
CTETRA      3455       1     556     833     835     224
CTETRA      3456       1     216     224     833     387
CTETRA      3457       1     216     397     396     224
CTETRA      3458       1     283       8     455     286
CTETRA      3459       1     421     224     418     285
CTETRA      3460       1    3272    3280    3279    1069
CTETRA      3461       1       5     167       7       6
CTETRA      3462       1    4227    4228    1267    3030
CTETRA      3463       1    1194    1197     486     958
CTETRA      3464       1    4202    4203    1195    3007
CTETRA      3465       1    1186     771    1200     505
CTETRA      3466       1     159     182     184     162
CTETRA      3467       1     283     286     521       3
CTETRA      3468       1     114     238     915     907
CTETRA      3469       1    1714    1730    1729     747
CTETRA      3470       1    4260    3348    4302     122
CTETRA      3471       1     296     523       9     852
CTETRA      3472       1    4260    3986    3348    1604
CTETRA      3473       1       9      10       7     850
CTETRA      3474       1     477     176      10     850
CTETRA      3475       1    3664     282     849     850
CTETRA      3476       1     282     477      10     850
CTETRA      3477       1     121     964     915     125
CTETRA      3478       1     477     455       8     182
CTETRA      3479       1    4260    1330    1331     135
CTETRA      3480       1    4259    4260    1331     135
CTETRA      3481       1    4260    3689    1330     135
CTETRA      3482       1     446     735     738    1092
CTETRA      3483       1     275    1120     242     735
CTETRA      3484       1    1614     446     738    1092
CTETRA      3485       1    3621    1631     954     709
CTETRA      3486       1    1614     738    1615    1092
CTETRA      3487       1    4268    3621    4269    1631
CTETRA      3488       1    1615     240    1092    1079
CTETRA      3489       1    1614    1615    1616    1092
CTETRA      3490       1    3393    3543    3542    1673
CTETRA      3491       1    3395    3542    3541    1674
CTETRA      3492       1    1618     240     239    1092
CTETRA      3493       1    1616    1618     239    1092
CTETRA      3494       1    3549    1660    1662    1086
CTETRA      3495       1    1616     239     446    1092
CTETRA      3496       1    2453    2492    2490     218
CTETRA      3497       1    3607     446    1616     239
CTETRA      3498       1    2169    2455     900     261
CTETRA      3499       1    3279    1121    1122    1119
CTETRA      3500       1    2451    1052    2465     698
CTETRA      3501       1     239     242     730    1092
CTETRA      3502       1    2759    2761    2760     805
CTETRA      3503       1    2189    2192    2190     806
CTETRA      3504       1    2327    2328    2760    1115
CTETRA      3505       1    3095    3096    3126    1072
CTETRA      3506       1     730     242     735    1092
CTETRA      3507       1    2177    2189    2188     804
CTETRA      3508       1    4219    1237    1236    3081
CTETRA      3509       1    2723    2730     681     682
CTETRA      3510       1       7      10       6     176
CTETRA      3511       1     184    1060     185     182
CTETRA      3512       1     477     185    1060     182
CTETRA      3513       1    1970    1976    1975     615
CTETRA      3514       1     704     176     175     162
CTETRA      3515       1    3064    3069    3066    1093
CTETRA      3516       1    3020    3066    3067     625
CTETRA      3517       1    3020    3044    3021     614
CTETRA      3518       1    3020    3021    3066     625
CTETRA      3519       1    1971    1977    1976     615
CTETRA      3520       1     184     732    1060     733
CTETRA      3521       1     625     616     501     790
CTETRA      3522       1    2334    2460    2462    1123
CTETRA      3523       1     175     732     185     183
CTETRA      3524       1    3038     990    3043    1000
CTETRA      3525       1    4263       7    1087     176
CTETRA      3526       1    2698     196    2711     657
CTETRA      3527       1    3051    3052    3069     211
CTETRA      3528       1    3066    3069    3067     625
CTETRA      3529       1     323     322     347     296
CTETRA      3530       1     166     165     163     160
CTETRA      3531       1     348     523     296     852
CTETRA      3532       1    4206    1207    1206    2965
CTETRA      3533       1    4262     167    1087       7
CTETRA      3534       1     477     704     185     182
CTETRA      3535       1       7       6      10       4
CTETRA      3536       1     283       8     286       3
CTETRA      3537       1       1     285       8       3
CTETRA      3538       1    2965    2976    2979     620
CTETRA      3539       1     108     110       2       3
CTETRA      3540       1     324       5     161     167
CTETRA      3541       1    3339     323     324      98
CTETRA      3542       1     467     256     161       2
CTETRA      3543       1    1265    1266    1267     977
CTETRA      3544       1     323       5     322     296
CTETRA      3545       1    2627     341     855     508
CTETRA      3546       1    4226    4227    1267    3030
CTETRA      3547       1     414     158       8     182
CTETRA      3548       1    2856    2951    2952     507
CTETRA      3549       1    2629    1124     568     569
CTETRA      3550       1     323     324       5       2
CTETRA      3551       1    2639    2641     563     602
CTETRA      3552       1    3506    3507    1785    1557
CTETRA      3553       1    2605    2624    2613     761
CTETRA      3554       1     858     391     388     435
CTETRA      3555       1    2613    2624    2623    1016
CTETRA      3556       1     403     425     429     312
CTETRA      3557       1    2879     884     270     346
CTETRA      3558       1    2582     303    2583     304
CTETRA      3559       1    4250    2876    1320    2886
CTETRA      3560       1     825      33      30      32
CTETRA      3561       1      53     494      29      46
CTETRA      3562       1      28     494     980      29
CTETRA      3563       1    2876    2886    2877     297
CTETRA      3564       1    4249    1314    2885    2886
CTETRA      3565       1     825     288      31      33
CTETRA      3566       1    2877    2886    2885     297
CTETRA      3567       1    1317    2886    1320     297
CTETRA      3568       1    4124     549     873      25
CTETRA      3569       1    3996    2074    2069    2872
CTETRA      3570       1    3995    2867    2069    2893
CTETRA      3571       1    1194     486    1197     487
CTETRA      3572       1    3013    1064    3015     485
CTETRA      3573       1    1197     486     489     487
CTETRA      3574       1    1064     488     487     485
CTETRA      3575       1    2435     801     900     976
CTETRA      3576       1    3997    2871    2074    2872
CTETRA      3577       1    3442    2272    3443    1060
CTETRA      3578       1    1201     489    1202     487
CTETRA      3579       1    1188     488     961     485
CTETRA      3580       1    1188    1202     488     487
CTETRA      3581       1    3996    2069    2867    2872
CTETRA      3582       1    3611     254     253     649
CTETRA      3583       1    1686    1687    1702     245
CTETRA      3584       1    4274    3612    3611    1622
CTETRA      3585       1     895      95     894      88
CTETRA      3586       1     895      97      95      88
CTETRA      3587       1    1624      91      97      88
CTETRA      3588       1    1624      97     895      88
CTETRA      3589       1    3039    3042    3047    1013
CTETRA      3590       1    3422    3423    1537     590
CTETRA      3591       1     694    1012    1047     696
CTETRA      3592       1    1991    1047    1012     696
CTETRA      3593       1    1991    1047    1996    1012
CTETRA      3594       1    3577      28    3578     980
CTETRA      3595       1    3040    1012    1018    1013
CTETRA      3596       1    1981     999    1984     998
CTETRA      3597       1    1922    1998    3039    1013
CTETRA      3598       1    4113    4114    2146    2829
CTETRA      3599       1    1686    1537    1687     245
CTETRA      3600       1      49      51     288      47
CTETRA      3601       1    4297    3577    4115    4125
CTETRA      3602       1     598     916     941     580
CTETRA      3603       1    2981    2990    1125     991
CTETRA      3604       1     873      46     425     857
CTETRA      3605       1    2698    2711    2699     657
CTETRA      3606       1    1205    1207    3055     621
CTETRA      3607       1    2693     490      34     622
CTETRA      3608       1     858     389     388     391
CTETRA      3609       1    3072     656    3074      37
CTETRA      3610       1     778     269      33      32
CTETRA      3611       1     980      29     549      25
CTETRA      3612       1    3914    2804    1950    2805
CTETRA      3613       1    1025      16      15      14
CTETRA      3614       1    3916    2803    1953    2804
CTETRA      3615       1    3915    1953    1950    2804
CTETRA      3616       1    2753    2754    2793     488
CTETRA      3617       1    3416     257    3417     258
CTETRA      3618       1    1681    1547     461     258
CTETRA      3619       1    2785     772    1076     795
CTETRA      3620       1     425     427     391     857
CTETRA      3621       1    1188    1191     487     485
CTETRA      3622       1    2786    2792     488     795
CTETRA      3623       1    2849     673     672    1102
CTETRA      3624       1     388    1027      11     435
CTETRA      3625       1      58      13      12      14
CTETRA      3626       1    3744    3745    1202    2794
CTETRA      3627       1    2752    2779    2753     961
CTETRA      3628       1     431     226    1027      11
CTETRA      3629       1      60      56      11      13
CTETRA      3630       1      60      11     226      12
CTETRA      3631       1    3448      21    4116      23
CTETRA      3632       1    2022    2663    2031     713
CTETRA      3633       1    4117     880     271      23
CTETRA      3634       1    3447      20     353     277
CTETRA      3635       1    3448     981    3657      21
CTETRA      3636       1    3448     981      21      22
CTETRA      3637       1    3486    3487    1687    1537
CTETRA      3638       1    2578    2669    2666    1055
CTETRA      3639       1    2058    2669    1055     340
CTETRA      3640       1    3354     589     367     904
CTETRA      3641       1    1635      69     710     591
CTETRA      3642       1    2581    2585    2582    1126
CTETRA      3643       1     578     904     357     592
CTETRA      3644       1    2923     669    2928     823
CTETRA      3645       1     589     904     430     592
CTETRA      3646       1    3427    1174    1167     515
CTETRA      3647       1     989     578     357     592
CTETRA      3648       1    1722    1738    1737    1095
CTETRA      3649       1    1636     585     430     904
CTETRA      3650       1    2881     303    2882     851
CTETRA      3651       1    3207     717    3208    1127
CTETRA      3652       1    1706    1707    1722     836
CTETRA      3653       1     585     904     578     592
CTETRA      3654       1    2439    1122    1121    1119
CTETRA      3655       1    2147     557     495      44
CTETRA      3656       1      44      46      45     535
CTETRA      3657       1    3578     980      28     494
CTETRA      3658       1      29      46     857      47
CTETRA      3659       1    3854    3855    2114    2536
CTETRA      3660       1    2521    2522    2529     841
CTETRA      3661       1     269      33      29     857
CTETRA      3662       1    4266    3584    3583      68
CTETRA      3663       1    3639    2283    2285    1051
CTETRA      3664       1     392     557     750      50
CTETRA      3665       1     581     580     453      31
CTETRA      3666       1    2774    2782     963     924
CTETRA      3667       1    2500    2523    2501     422
CTETRA      3668       1    1644     901     155     899
CTETRA      3669       1    3207     646     714    1127
CTETRA      3670       1    1181     962    2782     924
CTETRA      3671       1    3468    2290    2291     226
CTETRA      3672       1    3749    1181    1190    2782
CTETRA      3673       1    1184    1229    3024    1104
CTETRA      3674       1     963     962     875     924
CTETRA      3675       1    2520    2524     690     969
CTETRA      3676       1    3809    1383    1380     969
CTETRA      3677       1    1181    1414     962     924
CTETRA      3678       1     963     876     875     962
CTETRA      3679       1    1190     961     962     485
CTETRA      3680       1    1180    1189    1190     485
CTETRA      3681       1     164     167     161     160
CTETRA      3682       1     159     163     255     160
CTETRA      3683       1    2447    2483    2484     664
CTETRA      3684       1    2470     808     354     984
CTETRA      3685       1    1343    1344    1347    1052
CTETRA      3686       1    2084     633     252     587
CTETRA      3687       1     583     577     576      92
CTETRA      3688       1     161     167       5       6
CTETRA      3689       1     783     784    1067     944
CTETRA      3690       1     158     159     255     160
CTETRA      3691       1     164     324     161     167
CTETRA      3692       1    2163     192    3152     133
CTETRA      3693       1    1707     314     513     597
CTETRA      3694       1    2171    2173     169     133
CTETRA      3695       1    3702    2591    2589     570
CTETRA      3696       1    3586    2267    2271     222
CTETRA      3697       1    1059     276     797     838
CTETRA      3698       1    3151    3152     192     133
CTETRA      3699       1    2084    2096     633     587
CTETRA      3700       1    4081    2173    2175     133
CTETRA      3701       1    2173    3082     169     133
CTETRA      3702       1    3082    3083     169     133
CTETRA      3703       1    4081    3082    2173     133
CTETRA      3704       1    3083     192     169     133
CTETRA      3705       1    2153    2154    2198     801
CTETRA      3706       1    3446    3447    1406     277
CTETRA      3707       1    3653    4119     308     309
CTETRA      3708       1     335     682     681    1104
CTETRA      3709       1    3616    2258    2256      90
CTETRA      3710       1    4268    4298    3621     954
CTETRA      3711       1     335    1104     681     770
CTETRA      3712       1    1240     681    1243     682
CTETRA      3713       1    1239    1240    1241     682
CTETRA      3714       1     325     682     335    1104
CTETRA      3715       1    4268    3581     954      70
CTETRA      3716       1    3983    3353    3352     367
CTETRA      3717       1    3475    1583    1584    1128
CTETRA      3718       1    3023    3024     325     335
CTETRA      3719       1    2224    2242    2244     371
CTETRA      3720       1    1237    1240     325    1104
CTETRA      3721       1    1230    1243    1240     681
CTETRA      3722       1    2434    2435    2436     801
CTETRA      3723       1    2305    2510    2509    1099
CTETRA      3724       1    3269    3274    3270    1031
CTETRA      3725       1    3664    2843    2844     849
CTETRA      3726       1     971     973     422     424
CTETRA      3727       1     971     424     422     972
CTETRA      3728       1     973     969     422     423
CTETRA      3729       1    2154    2431    2198     801
CTETRA      3730       1    1384    3242    3243     423
CTETRA      3731       1    1381    3243    3244     423
CTETRA      3732       1    2433    2434    2436     801
CTETRA      3733       1    3285    3286    3288     146
CTETRA      3734       1    2397    2401    2398    1129
CTETRA      3735       1    3408     392    3819     557
CTETRA      3736       1    2127     566    2128     316
CTETRA      3737       1    3409     575     750     557
CTETRA      3738       1    3791    1357    1344    2449
CTETRA      3739       1    3410    3580    3557    1640
CTETRA      3740       1    2397    2423    2422     327
CTETRA      3741       1     392     750     555      50
CTETRA      3742       1    3403    3825    3824     723
CTETRA      3743       1     427      46      45      47
CTETRA      3744       1     216     109     397     224
CTETRA      3745       1    2061     267    2892     270
CTETRA      3746       1    2275     740     396     397
CTETRA      3747       1     103     107     572     108
CTETRA      3748       1     216     396     833     224
CTETRA      3749       1    1325     551    1088     779
CTETRA      3750       1     418     224     396     286
CTETRA      3751       1      15      17      71      14
CTETRA      3752       1    1486     864     659     660
CTETRA      3753       1     155     157     395     898
CTETRA      3754       1      58     899     722      16
CTETRA      3755       1    3281    3284    3283     464
CTETRA      3756       1     155     898     395     922
CTETRA      3757       1    1690    1536    1535    1083
CTETRA      3758       1     724     722     395     898
CTETRA      3759       1    1493    1494    1497     660
CTETRA      3760       1    2975     620     958     506
CTETRA      3761       1    1460    1466    1465     538
CTETRA      3762       1    2096     228    2097     632
CTETRA      3763       1    3350    1601    3351     909
CTETRA      3764       1     230     808     632     231
CTETRA      3765       1     230     808     231     229
CTETRA      3766       1    3445     901      19     881
CTETRA      3767       1    3426    1171    1173     917
CTETRA      3768       1     627     305      15      73
CTETRA      3769       1    1485     864    1486     660
CTETRA      3770       1    1025      15      71      14
CTETRA      3771       1      19     881     901      16
CTETRA      3772       1     901     881     156     898
CTETRA      3773       1    1493    1495     870     798
CTETRA      3774       1    3774    3775    1493    2409
CTETRA      3775       1    1408    1423    1422     321
CTETRA      3776       1    3284    3289    3288     219
CTETRA      3777       1    1455    1456     539     321
CTETRA      3778       1    1456    2372     539     321
CTETRA      3779       1     319     479     320     321
CTETRA      3780       1    1777     997     576     707
CTETRA      3781       1     319     539     479     321
CTETRA      3782       1     889     130    1023     132
CTETRA      3783       1     412     385     132     413
CTETRA      3784       1     481     385     413     491
CTETRA      3785       1    3602    2264      52     797
CTETRA      3786       1    3443    1560    1557     733
CTETRA      3787       1    1794    1552    1550     640
CTETRA      3788       1    1023     474     132    1021
CTETRA      3789       1    2144    2504    2503    1019
CTETRA      3790       1    3819    2318    2319     495
CTETRA      3791       1    2047    2934    1117    1116
CTETRA      3792       1    3518    3519    1809    1565
CTETRA      3793       1     284     283     521       9
CTETRA      3794       1     393     845     534     427
CTETRA      3795       1     534     429     887     427
CTETRA      3796       1     543     293    1024    1021
CTETRA      3797       1    2298    2302     171     294
CTETRA      3798       1     441     171      38     294
CTETRA      3799       1    2302      43     171     294
CTETRA      3800       1    2298     171     227     294
CTETRA      3801       1    1955    1958    1960     209
CTETRA      3802       1     543     292     293     294
CTETRA      3803       1     240     509     250     242
CTETRA      3804       1     240     509     242    1092
CTETRA      3805       1    3288    3289    3293     219
CTETRA      3806       1     572     201     108     102
CTETRA      3807       1    2170    2171    2174     169
CTETRA      3808       1    4157    4158    1443    3278
CTETRA      3809       1    3831    3832     572     201
CTETRA      3810       1    1333    1345    1343     698
CTETRA      3811       1    1839    1840     440     436
CTETRA      3812       1    3624    2303     137    1023
CTETRA      3813       1    2301     543     137      43
CTETRA      3814       1    1678     476     474    1024
CTETRA      3815       1    2619     105     553     862
CTETRA      3816       1    1678    1023     137    1024
CTETRA      3817       1     389     647    1080      32
CTETRA      3818       1     891     453     654     645
CTETRA      3819       1    2317    2319    2318     495
CTETRA      3820       1    1916    1589     405    1080
CTETRA      3821       1    3465    2288     405    1080
CTETRA      3822       1    3465    1593     206    1080
CTETRA      3823       1    1814     374    1112    1074
CTETRA      3824       1    2018    2021    2020    1053
CTETRA      3825       1    3839    2149    2147     495
CTETRA      3826       1    3450    1575     546    1074
CTETRA      3827       1    3839    2317    2149     495
CTETRA      3828       1    3450     381    1564    1074
CTETRA      3829       1    3570    3627    3626    1669
CTETRA      3830       1    1800    1575    1564    1074
CTETRA      3831       1    2171     169     261     133
CTETRA      3832       1     381     546     374    1074
CTETRA      3833       1    1799    1112    1575    1074
CTETRA      3834       1    1909     382     131     190
CTETRA      3835       1    1909     131    1582     190
CTETRA      3836       1    2400    2401    1129    1100
CTETRA      3837       1    3268    3284    3281     464
CTETRA      3838       1    1907    1584    1128     190
CTETRA      3839       1    3474    1582     721     190
CTETRA      3840       1    3187    3197     540     469
CTETRA      3841       1    1908    1582    1584     190
CTETRA      3842       1    4099    4100    2106    3253
CTETRA      3843       1    3866    2079    2093    2491
CTETRA      3844       1    3280    3283    3282    1123
CTETRA      3845       1    3251     462     463     793
CTETRA      3846       1    3208    3249    3250     717
CTETRA      3847       1    1372    1374    2566     972
CTETRA      3848       1    3474    2293    2297     721
CTETRA      3849       1    3474     721     719     190
CTETRA      3850       1    2099    3317    3318     632
CTETRA      3851       1    1895     131     129     141
CTETRA      3852       1    2096     587     228     632
CTETRA      3853       1    2094    2481    2494     587
CTETRA      3854       1    3761    1409    2371    2372
CTETRA      3855       1    2095     228    2493     229
CTETRA      3856       1    2487     808    2493     228
CTETRA      3857       1    2396    2400     327     871
CTETRA      3858       1    2493     228     808     229
CTETRA      3859       1    3472     130    1588     141
CTETRA      3860       1    3351    3352    1156     909
CTETRA      3861       1    3673    1784    3508    1561
CTETRA      3862       1    3083    3282    3286     169
CTETRA      3863       1    1991    1992    1997    1047
CTETRA      3864       1    3862    2494    2493     228
CTETRA      3865       1    3862    2094    2494     228
CTETRA      3866       1    2804    2805    2808     948
CTETRA      3867       1    2811    1130     948     952
CTETRA      3868       1    2807    2811    1130     948
CTETRA      3869       1    2803    2807    1130     948
CTETRA      3870       1     617    1085    1126    1081
CTETRA      3871       1    1878    1894    1893     382
CTETRA      3872       1    3416    3417    1541     258
CTETRA      3873       1    1951    1954    1130     948
CTETRA      3874       1    1954    2803    1130     948
CTETRA      3875       1    1953    2804    2803     948
CTETRA      3876       1    1951     950    1952     948
CTETRA      3877       1    1951    1130     950     948
CTETRA      3878       1     216     215     571     118
CTETRA      3879       1    3240    3244    3243     423
CTETRA      3880       1    1677     476    1678    1024
CTETRA      3881       1    1402     353    2839     278
CTETRA      3882       1    3342    3834    3833     103
CTETRA      3883       1    3381    3382    1531    1086
CTETRA      3884       1    2285     728    1051    1096
CTETRA      3885       1     519     520     524     106
CTETRA      3886       1    2904     519     520     524
CTETRA      3887       1    1508    1008    1512     629
CTETRA      3888       1    4127    2837    1404     278
CTETRA      3889       1     109     397     224     286
CTETRA      3890       1    3570    3626    3625    1671
CTETRA      3891       1    2830    2904     520     882
CTETRA      3892       1    3668    3669     520     571
CTETRA      3893       1    3430    2265    3431    1059
CTETRA      3894       1    3980    3358    3357     886
CTETRA      3895       1    3669    2830     520     631
CTETRA      3896       1    1705     513     366    1083
CTETRA      3897       1    3591    3592    2275     740
CTETRA      3898       1    3668     520     519     571
CTETRA      3899       1    1848     384    1849     385
CTETRA      3900       1    1864    1865    1058     177
CTETRA      3901       1    3473    1588     130     131
CTETRA      3902       1    1058     177     474     385
CTETRA      3903       1    3496    1796    1548    1551
CTETRA      3904       1    2303     137    1023     130
CTETRA      3905       1    3625    3626    2304     889
CTETRA      3906       1    3577    1641    3578      24
CTETRA      3907       1     889     132     474     491
CTETRA      3908       1    3573    1677    3622     543
CTETRA      3909       1     889     982     132     491
CTETRA      3910       1    1675     155     715     922
CTETRA      3911       1     982     361     983     413
CTETRA      3912       1    3091     319     299     478
CTETRA      3913       1    3688    4294    3509    1574
CTETRA      3914       1    4291    2283    2284    1096
CTETRA      3915       1    2382     479    2383     478
CTETRA      3916       1    3222    3229    3226     687
CTETRA      3917       1    2391     478     818     359
CTETRA      3918       1    1465     665     301     538
CTETRA      3919       1    3400    3445    3827     352
CTETRA      3920       1     666    1070     469     766
CTETRA      3921       1    3445    1647    3446     901
CTETRA      3922       1    1804     291    1819     498
CTETRA      3923       1     888     914     593    1065
CTETRA      3924       1    2339    2358     472     666
CTETRA      3925       1    3624    3625    2303    1023
CTETRA      3926       1    2338     666    2339     667
CTETRA      3927       1     540     666     671     471
CTETRA      3928       1    3563    1655     728     725
CTETRA      3929       1    1476    3203    3204     665
CTETRA      3930       1    1476    1482    3203     665
CTETRA      3931       1    1477     665     667     471
CTETRA      3932       1    2338    2350     666     667
CTETRA      3933       1    3650     873    3651     778
CTETRA      3934       1    1815     377     374    1074
CTETRA      3935       1    3441     833    2277     396
CTETRA      3936       1    3571    1671    3625    1023
CTETRA      3937       1    3391    3543    3392     475
CTETRA      3938       1    3388    1668    3545     492
CTETRA      3939       1    3398    1519    1518     156
CTETRA      3940       1    3584    1603     142      68
CTETRA      3941       1    3441     396    1562     835
CTETRA      3942       1    1562     835     396     456
CTETRA      3943       1    3422    1537    1539     590
CTETRA      3944       1    1787    1563    1562     835
CTETRA      3945       1    3505    1562    1787    1563
CTETRA      3946       1    3465    1589    1593    1080
CTETRA      3947       1    1861    1862    1877     720
CTETRA      3948       1    1655    1657    1656     541
CTETRA      3949       1     457     525     530     526
CTETRA      3950       1    1523     457     525     530
CTETRA      3951       1    3463     331    1524     530
CTETRA      3952       1    3473    3474    1582     721
CTETRA      3953       1    3559    3644    3560    1653
CTETRA      3954       1     574     916     536     531
CTETRA      3955       1    1524     331     458     530
CTETRA      3956       1     458     530     331     531
CTETRA      3957       1    2273     704     175     732
CTETRA      3958       1    3428    1178    1177     314
CTETRA      3959       1    3597    2273    2274     704
CTETRA      3960       1    1598     175     704     176
CTETRA      3961       1     940     163     183     411
CTETRA      3962       1     929     408     163     411
CTETRA      3963       1    1740     940     159     184
CTETRA      3964       1    3676     560     213     411
CTETRA      3965       1    3676     213    3677     411
CTETRA      3966       1    3675     560     940    1039
CTETRA      3967       1    1818    1819    1834     178
CTETRA      3968       1     560     940    1039     404
CTETRA      3969       1    1873    1888     654     449
CTETRA      3970       1     159     184     940     183
CTETRA      3971       1    1557     456    1060     733
CTETRA      3972       1    3443    1557    1060     733
CTETRA      3973       1    1959    2970    2989     209
CTETRA      3974       1    1213    1224    1223     656
CTETRA      3975       1    1785    1557    1560     733
CTETRA      3976       1    2854    3033    3036     694
CTETRA      3977       1    3037    3038    3042    1000
CTETRA      3978       1    3776    3777    1485    2410
CTETRA      3979       1    3443    1060     732     733
CTETRA      3980       1    1336     609    1131     428
CTETRA      3981       1    4230    4231    1261    2940
CTETRA      3982       1    1336    1337     609     428
CTETRA      3983       1    1979    3046    1980     614
CTETRA      3984       1    4216    4217    1235    3079
CTETRA      3985       1    2530    2531    2564     609
CTETRA      3986       1     609    1131     428    1003
CTETRA      3987       1    3943    3944    2010    2689
CTETRA      3988       1    4009    2910    2017    2933
CTETRA      3989       1    1288    1289    1292     570
CTETRA      3990       1    3704    3705    1276    2574
CTETRA      3991       1    3506    1785    1786    1557
CTETRA      3992       1    2541     609    2542     428
CTETRA      3993       1    2530    2542     609     428
CTETRA      3994       1    1783     810    1798     919
CTETRA      3995       1    3431     730    1548     919
CTETRA      3996       1     937     341     815     508
CTETRA      3997       1    1011     764     765    1014
CTETRA      3998       1    1327    2835    2836    1056
CTETRA      3999       1    1797    1559    1548     919
CTETRA      4000       1    3685    1844    1062     527
CTETRA      4001       1    1798     810    1559     919
CTETRA      4002       1    3431    1059     730     919
CTETRA      4003       1    2555    2556    2559     970
CTETRA      4004       1    3461     914     626    1065
CTETRA      4005       1    1812    1065    1573     579
CTETRA      4006       1    2509    2510    2529    1099
CTETRA      4007       1    1811    1578    1573    1065
CTETRA      4008       1    3521    1573    1811    1578
CTETRA      4009       1     789    1005     788     726
CTETRA      4010       1    1875    1057     912     792
CTETRA      4011       1      19      17      16      14
CTETRA      4012       1    1860    1875    1057     912
CTETRA      4013       1    3559    1653    1638     459
CTETRA      4014       1    2555     970    2557     643
CTETRA      4015       1    3824    2822    2307     274
CTETRA      4016       1    1876     912     720     820
CTETRA      4017       1    1860     912    1057     537
CTETRA      4018       1    2331    2775    2778     676
CTETRA      4019       1    3886    3887    2250    2353
CTETRA      4020       1     720     820     912     821
CTETRA      4021       1    3681    1590    1592    1042
CTETRA      4022       1    2376    2381    2377     484
CTETRA      4023       1    1096    1132    1063    1042
CTETRA      4024       1    4291    1096     207    1042
CTETRA      4025       1    4291     207    1592    1042
CTETRA      4026       1     418     396     455     286
CTETRA      4027       1    2406    2407    2416     870
CTETRA      4028       1     521     104     108     106
CTETRA      4029       1    3592     284     283     740
CTETRA      4030       1    3593     282    3594     477
CTETRA      4031       1    3593     283     282     477
CTETRA      4032       1    2223    2224    2244     371
CTETRA      4033       1    4192    4193    1416    3017
CTETRA      4034       1    1431     639    1050     482
CTETRA      4035       1     282     477     283      10
CTETRA      4036       1    1920    1921    2182     189
CTETRA      4037       1     521     296     108     104
CTETRA      4038       1    1429    1430    1433     677
CTETRA      4039       1    3739    2812    1210    2813
CTETRA      4040       1    3592     284     282     283
CTETRA      4041       1     477       8      10     182
CTETRA      4042       1    2353    1133    2363     755
CTETRA      4043       1    2367    2368    2378    1050
CTETRA      4044       1    3175    1134    3184     758
CTETRA      4045       1     484     651     653     988
CTETRA      4046       1    1134     756    1135     758
CTETRA      4047       1    4036    1925    2990    2991
CTETRA      4048       1    1199    2788    1201     489
CTETRA      4049       1    2213    2219    2218     988
CTETRA      4050       1    2809     948     949     947
CTETRA      4051       1    3885    2235    2355    1133
CTETRA      4052       1    2342    1136    1135    1133
CTETRA      4053       1    2234    1136    2235    1133
CTETRA      4054       1    3885    2354    2250    1133
CTETRA      4055       1    2750     996    2791     189
CTETRA      4056       1    3724    3725    1243    2730
CTETRA      4057       1    3525    1589    1917    1593
CTETRA      4058       1    2207    2213    2212     988
CTETRA      4059       1     389    1080     405      32
CTETRA      4060       1    2948    2960    2959     936
CTETRA      4061       1    1888     654     449     647
CTETRA      4062       1     449     647     206    1137
CTETRA      4063       1     513     515     314     516
CTETRA      4064       1    1902    1137    1918    1080
CTETRA      4065       1    1887     654    1888     647
CTETRA      4066       1      26     206      30      32
CTETRA      4067       1    1886     891    1887     389
CTETRA      4068       1    1248    1251    1249     568
CTETRA      4069       1    1685     744    1538     117
CTETRA      4070       1    1700    1701     114     117
CTETRA      4071       1    1686     590     115     117
CTETRA      4072       1    4101    2108    3254    3255
CTETRA      4073       1    4098    2111    2082    3252
CTETRA      4074       1    1685    1539    1686     117
CTETRA      4075       1    1252     563    2634     567
CTETRA      4076       1    4013    2955    2008    2957
CTETRA      4077       1    1685    1538    1539     117
CTETRA      4078       1    1261    2940    2944     856
CTETRA      4079       1    3421    1538     965     117
CTETRA      4080       1    3993    2892    2061    2894
CTETRA      4081       1    3421     965     116     117
CTETRA      4082       1    3209    3252    3210     885
CTETRA      4083       1    2023    2024    2033     861
CTETRA      4084       1    2578    2579    2669    1055
CTETRA      4085       1    1686    1539     590     117
CTETRA      4086       1    3268     782    3301     975
CTETRA      4087       1     909     116     965     907
CTETRA      4088       1    1451    2428    2427     953
CTETRA      4089       1    2169     900    2172     261
CTETRA      4090       1    2099    2101    3317     632
CTETRA      4091       1    1158     965     909     116
CTETRA      4092       1     114     744     965     915
CTETRA      4093       1    3577    3647      24      25
CTETRA      4094       1     841     842     843     419
CTETRA      4095       1     796     463     643     968
CTETRA      4096       1    1842    1858    1857     574
CTETRA      4097       1    1165     468     461     259
CTETRA      4098       1    3418     468    1546     461
CTETRA      4099       1    2109    2111    2110     885
CTETRA      4100       1    1682    1547    1546     461
CTETRA      4101       1    3653     403     308     431
CTETRA      4102       1    3405    3822    3821     393
CTETRA      4103       1    4163    1475    1469    3276
CTETRA      4104       1    3417     257     461     258
CTETRA      4105       1     580      48      31      51
CTETRA      4106       1    1782    1797    1796     919
CTETRA      4107       1    3673    3674     942     810
CTETRA      4108       1    1921    2183    2182     193
CTETRA      4109       1    3430    1059    1559     810
CTETRA      4110       1    1559     810    1059     919
CTETRA      4111       1    3494    1798    1558    1559
CTETRA      4112       1    3822     393     844     845
CTETRA      4113       1    1956    1960    1963     196
CTETRA      4114       1    3673     942     797     810
CTETRA      4115       1    3430     797    1059     810
CTETRA      4116       1    2377    2384    2390     371
CTETRA      4117       1    2533    2539    2534     967
CTETRA      4118       1     366     775     247     248
CTETRA      4119       1     513     917    1083     597
CTETRA      4120       1    1536     775    1083     248
CTETRA      4121       1    3172    3177    3176     752
CTETRA      4122       1    3426    1536     775    1083
CTETRA      4123       1    2249    2344    2251     755
CTETRA      4124       1    1162     168     164     928
CTETRA      4125       1    1597    1599    1600     959
CTETRA      4126       1    3085    1036    1119     663
CTETRA      4127       1    3598    3599    2254     407
CTETRA      4128       1    3490    1535    1690    1536
CTETRA      4129       1     928     257     258     161
CTETRA      4130       1    3970    1609    1610     400
CTETRA      4131       1    3426     775     917    1083
CTETRA      4132       1    1623      61    1625     868
CTETRA      4133       1    1535    1083     917     597
CTETRA      4134       1      95      84    1138     640
CTETRA      4135       1    1898    1914    1913     225
CTETRA      4136       1    3435      95    1139    1138
CTETRA      4137       1    1792    1556     705    1138
CTETRA      4138       1    3435    1139     705    1138
CTETRA      4139       1    3499    1793    1550    1556
CTETRA      4140       1    1793    1550    1556    1138
CTETRA      4141       1    2917     608     668     607
CTETRA      4142       1    2917    2924     668     608
CTETRA      4143       1    2375    2380    2376     484
CTETRA      4144       1    4049    2187    2183    3106
CTETRA      4145       1    1332    1345    1333     698
CTETRA      4146       1     668     822     853     223
CTETRA      4147       1    4098    4099    2111    3253
CTETRA      4148       1     668     617     834     853
CTETRA      4149       1    3133     610    1140     478
CTETRA      4150       1    3894    3895    2244    2377
CTETRA      4151       1    3250    3253    3252     885
CTETRA      4152       1    2928     669     343     823
CTETRA      4153       1    3645    3646    2287     205
CTETRA      4154       1    2082    2111    2109     885
CTETRA      4155       1    3271    1069    3279    1119
CTETRA      4156       1    2861     834     668     823
CTETRA      4157       1    2861    2916     668     834
CTETRA      4158       1    1712     416     256     259
CTETRA      4159       1     864     659     799     328
CTETRA      4160       1    3271    3276    3275    1035
CTETRA      4161       1    4097    2082    3210    3252
CTETRA      4162       1    3186    3198    3200     470
CTETRA      4163       1    1492    1495    1502     595
CTETRA      4164       1     864     869     659     662
CTETRA      4165       1    2419     865     864     662
CTETRA      4166       1    3161    3163    3162     869
CTETRA      4167       1    1469    3276    1475    1035
CTETRA      4168       1    2207     652    3123     988
CTETRA      4169       1    2395    2419     864     662
CTETRA      4170       1    2395     662     864     328
CTETRA      4171       1    2393     864    2394     865
CTETRA      4172       1    2408    2411    2410     864
CTETRA      4173       1    2408     864    2410     660
CTETRA      4174       1    4162    1463    3275    1035
CTETRA      4175       1    3294    3313     230    1068
CTETRA      4176       1    3207    3248    3249     714
CTETRA      4177       1     819     983     382     719
CTETRA      4178       1     271     272      63     310
CTETRA      4179       1     819    1128     719     190
CTETRA      4180       1    3848    2126    2552    2553
CTETRA      4181       1    1879     382    1058     131
CTETRA      4182       1    1058     382     412     132
CTETRA      4183       1    1878    1893     819     382
CTETRA      4184       1     721     131     382     190
CTETRA      4185       1    3460    1509    1510     914
CTETRA      4186       1     880      21      18      23
CTETRA      4187       1     888      49     626      51
CTETRA      4188       1    1297    1300    2587     303
CTETRA      4189       1    2864    2883    2881    1085
CTETRA      4190       1     575     750      48      51
CTETRA      4191       1    3584     142     360      68
CTETRA      4192       1    1312    1316    1315     761
CTETRA      4193       1    1506     750     575     966
CTETRA      4194       1    3086    3087    3276    1033
CTETRA      4195       1    1056     779     573     215
CTETRA      4196       1    2593    2600    2594     270
CTETRA      4197       1    2309    2316    2611     861
CTETRA      4198       1    2059    2593    2601    2602
CTETRA      4199       1    3648    2288      26     269
CTETRA      4200       1     269      33      32      27
CTETRA      4201       1     269      25      29      27
CTETRA      4202       1    2937    2941    2938     569
CTETRA      4203       1    2586     617     822     570
CTETRA      4204       1     206    1080     647      32
CTETRA      4205       1    3984    3352    3351    1634
CTETRA      4206       1    2281    2288     269     405
CTETRA      4207       1    1286     607    1289     223
CTETRA      4208       1    2310    2316    2313     861
CTETRA      4209       1    1407    1457    3093     483
CTETRA      4210       1    2439     953    2440    1101
CTETRA      4211       1    3113    3114     318     482
CTETRA      4212       1    2994    2995     486    1141
CTETRA      4213       1    2984     951     950     947
CTETRA      4214       1    3113     638    3117     482
CTETRA      4215       1    4186    3119    3117     482
CTETRA      4216       1    2698    2715    2711     196
CTETRA      4217       1    1407    3119    1424     482
CTETRA      4218       1    1975    3019    3068     625
CTETRA      4219       1    1710     256     255     208
CTETRA      4220       1     931     987     828     826
CTETRA      4221       1    1802    1567    1568     828
CTETRA      4222       1    3512    1802    1567    1568
CTETRA      4223       1    3899    2199    2205    2762
CTETRA      4224       1    3452    1567     378     828
CTETRA      4225       1    2977    2980    2978     952
CTETRA      4226       1    3452     378     987     828
CTETRA      4227       1    3022    3023    3077     325
CTETRA      4228       1    4047    1921    2846    3107
CTETRA      4229       1    3906    2181    2180    2749
CTETRA      4230       1    1568     828     987     826
CTETRA      4231       1     214     150     220     149
CTETRA      4232       1    2755    2756    2770    1109
CTETRA      4233       1    2618     550     105     551
CTETRA      4234       1    2618    2622     551    1016
CTETRA      4235       1    2621     551    2622    1011
CTETRA      4236       1    2320    2321     551     552
CTETRA      4237       1    2756    2761    2757    1109
CTETRA      4238       1    1325     552     551     779
CTETRA      4239       1    3757    2369    1434     639
CTETRA      4240       1    2750    2772     996     188
CTETRA      4241       1    2193     280    2763     804
CTETRA      4242       1    2199    2200     781     280
CTETRA      4243       1    2321     550     551     552
CTETRA      4244       1    1742     414     416     285
CTETRA      4245       1     191     776     772     773
CTETRA      4246       1    4040    1948    1947    2987
CTETRA      4247       1    4046    4047    1933    2846
CTETRA      4248       1    1056     779    1088     573
CTETRA      4249       1    2067    2596    2603     884
CTETRA      4250       1    3829    3830    2323     550
CTETRA      4251       1     631     571     215     118
CTETRA      4252       1    1517     910     925     181
CTETRA      4253       1    2044    2592    2615     233
CTETRA      4254       1    2877    2884    2878     302
CTETRA      4255       1    3393     925    1517     910
CTETRA      4256       1    2063    2064    2075    1055
CTETRA      4257       1    3542    1673    1674     925
CTETRA      4258       1    1673     925     476     921
CTETRA      4259       1    4242    1293    2922     853
CTETRA      4260       1     155     154     715     922
CTETRA      4261       1    3395    1517     925     715
CTETRA      4262       1    3395    1674    3541     921
CTETRA      4263       1    1969    1975    3068     210
CTETRA      4264       1     344     697     345    1012
CTETRA      4265       1    3084    3279    1122    1119
CTETRA      4266       1    2439    1121     953    1119
CTETRA      4267       1    3271    1036    1069    1119
CTETRA      4268       1    3279    1069    1121    1119
CTETRA      4269       1    2017    2020    2933    1053
CTETRA      4270       1    1069    1036    1101    1119
CTETRA      4271       1    2656    2657    2664     712
CTETRA      4272       1    3707    3708    1283    2640
CTETRA      4273       1    1069    1101    1036    1035
CTETRA      4274       1    2066    2067    2068     884
CTETRA      4275       1    2600    2601    2603     270
CTETRA      4276       1    3400     352    3401     881
CTETRA      4277       1    2861    2864    2862     834
CTETRA      4278       1    3831     572     786     201
CTETRA      4279       1     920     281     629      15
CTETRA      4280       1    2217    2223    2381     653
CTETRA      4281       1    3897    3898    2211    2326
CTETRA      4282       1    1041    1043    1103     679
CTETRA      4283       1    1421    2331    1427     677
CTETRA      4284       1    1508     156    1008     281
CTETRA      4285       1    2785    2792    2786     795
CTETRA      4286       1    2795    2796    2806     772
CTETRA      4287       1     554     571     216     215
CTETRA      4288       1    1264    1270    1274     855
CTETRA      4289       1    2323     550     552     135
CTETRA      4290       1    3345     127    3346    1082
CTETRA      4291       1      99    1082     466     120
CTETRA      4292       1    3344      99     127    1082
CTETRA      4293       1    3058    3059    3061     203
CTETRA      4294       1     318    1050     638     482
CTETRA      4295       1    1956    1965    1964     204
CTETRA      4296       1    2733    2742     999     616
CTETRA      4297       1    2675    2678    2677     696
CTETRA      4298       1    3019    3046    3020     625
CTETRA      4299       1    1428    3117    3118     638
CTETRA      4300       1    2776    2777     679     924
CTETRA      4301       1    3092    3195    3194     299
CTETRA      4302       1    2752    2792    2789    1076
CTETRA      4303       1    3960    2053    2059    2602
CTETRA      4304       1    2365     320     479     321
CTETRA      4305       1    1431    1050    1436     320
CTETRA      4306       1    3001     994    3003    1045
CTETRA      4307       1    4262       5     167       7
CTETRA      4308       1    2091    2095    2493     229
CTETRA      4309       1    2888    2891    2889     267
CTETRA      4310       1    1423    1431     320     482
CTETRA      4311       1    2366    2373     317     320
CTETRA      4312       1    2367     317    2373    1050
CTETRA      4313       1    3760    2371    1422     320
CTETRA      4314       1    3760    1422    1436     320
CTETRA      4315       1    4162    3276    1469    1035
CTETRA      4316       1    3191    3193    3196     299
CTETRA      4317       1    3190    3191    3204     301
CTETRA      4318       1    1468    1036    1101    1035
CTETRA      4319       1    2399    2400    2404    1100
CTETRA      4320       1    1069     953    1101    1035
CTETRA      4321       1    1438    1462     953    1035
CTETRA      4322       1    1460     300    2351     538
CTETRA      4323       1    3527    3528    1914    1594
CTETRA      4324       1    1438    1069    1439    1035
CTETRA      4325       1    3247    3259    3261     644
CTETRA      4326       1    4162    3275    3276    1035
CTETRA      4327       1    1439    1069    3275    1035
CTETRA      4328       1    3246    3251    3247     463
CTETRA      4329       1    4014    2962    2002     376
CTETRA      4330       1     814     937     815     376
CTETRA      4331       1    1360    1363    2565    1105
CTETRA      4332       1    3325    3331    3330     763
CTETRA      4333       1     937     812     815     376
CTETRA      4334       1    1336    1338    1342     428
CTETRA      4335       1    2006     937    2008     376
CTETRA      4336       1    1486    1487    1500     659
CTETRA      4337       1    2956     814    2962     376
CTETRA      4338       1    4014    2002    2005     376
CTETRA      4339       1    2008     937    2955     376
CTETRA      4340       1    2956     937     814     376
CTETRA      4341       1    2655     708     711     713
CTETRA      4342       1    3946    3947    2019     708
CTETRA      4343       1    3312     785     633     632
CTETRA      4344       1    2654     711    2655     708
CTETRA      4345       1    3859    3860    2085    2481
CTETRA      4346       1    4094    3314    2100    3318
CTETRA      4347       1    4089    4090    2102    3265
CTETRA      4348       1    2015     933    2016     708
CTETRA      4349       1    1361    1362    1365    1142
CTETRA      4350       1    1680    1696    1695     939
CTETRA      4351       1    2013    2689    2690     933
CTETRA      4352       1    2117     794    2122     908
CTETRA      4353       1    4138    1375    3234    3257
CTETRA      4354       1    3294    3313    3316     230
CTETRA      4355       1    3946    2019    2016     708
CTETRA      4356       1    2654     933     711     708
CTETRA      4357       1    2358    2362    1070     766
CTETRA      4358       1    2341    2357    1135    1070
CTETRA      4359       1    1134     866    1135    1070
CTETRA      4360       1    1134     756     469    1070
CTETRA      4361       1    3350    1156    1158     909
CTETRA      4362       1     756     469    1070     766
CTETRA      4363       1    2362     754    1070     766
CTETRA      4364       1    1245    1279    1281     604
CTETRA      4365       1    1729    1744     236      78
CTETRA      4366       1    1601    1604    1602     964
CTETRA      4367       1     896     400     929     411
CTETRA      4368       1    2929     878    1143     927
CTETRA      4369       1     560     404     401     411
CTETRA      4370       1      52     559     838     401
CTETRA      4371       1     447     400     213     401
CTETRA      4372       1    3339    1166    1160     324
CTETRA      4373       1    3785    1450    1449    2425
CTETRA      4374       1     896     447     736     173
CTETRA      4375       1    3421    1156    3422     116
CTETRA      4376       1    2723     684    2728     682
CTETRA      4377       1    1240     681     682    1104
CTETRA      4378       1    3725    2728    1241     682
CTETRA      4379       1    1682    1546     743     461
CTETRA      4380       1    1235    1236    1238     332
CTETRA      4381       1    2728     682     684     332
CTETRA      4382       1    2916     668     853     607
CTETRA      4383       1     105     551    1015    1016
CTETRA      4384       1    3690    1330    2324    2325
CTETRA      4385       1    1289     607     853     223
CTETRA      4386       1     822     608     606     223
CTETRA      4387       1    2723     334     684     682
CTETRA      4388       1     414     158     416       1
CTETRA      4389       1    3416     928     257     258
CTETRA      4390       1    1231    1073     681     770
CTETRA      4391       1    2895    1088    2898     765
CTETRA      4392       1    3345    3346    1164    1082
CTETRA      4393       1    1707    1708    1723     314
CTETRA      4394       1    1787     741    1563     835
CTETRA      4395       1    3723    1231    2726     681
CTETRA      4396       1    1596    1598    1599     166
CTETRA      4397       1    1713    1714    1729     236
CTETRA      4398       1    1073     335     333     681
CTETRA      4399       1    3356    1169    1153     589
CTETRA      4400       1    2724    2726    1073     681
CTETRA      4401       1    3723    2730    1243     681
CTETRA      4402       1    3977    3363    3978    1623
CTETRA      4403       1    2824     548    2828     493
CTETRA      4404       1    1735    1026      36     837
CTETRA      4405       1    2797     949     772     795
CTETRA      4406       1     996     194     994     189
CTETRA      4407       1    2850    3017    2851    1044
CTETRA      4408       1    2766    2772    2767     877
CTETRA      4409       1     887     495     493    1019
CTETRA      4410       1    2824     429     493     700
CTETRA      4411       1    1420    1421    1426     676
CTETRA      4412       1    2757    2761    2759    1144
CTETRA      4413       1    3125    3126    3131     650
CTETRA      4414       1    3951    2049    2043    2660
CTETRA      4415       1    2212    2218    2217     653
CTETRA      4416       1    3748    3749    1190    2781
CTETRA      4417       1    2828     493     548     330
CTETRA      4418       1     429    1048     493     700
CTETRA      4419       1     429     824     533     313
CTETRA      4420       1    2773    2777    2774     963
CTETRA      4421       1    1411    1417    1416    1044
CTETRA      4422       1    3097    3098    3111     683
CTETRA      4423       1    3821     393     534     887
CTETRA      4424       1    3340    3341    1166     467
CTETRA      4425       1    3950    2660    2037    2662
CTETRA      4426       1    2973    2984    2978     947
CTETRA      4427       1    2666    1055    2669     340
CTETRA      4428       1    2507    2511     532     534
CTETRA      4429       1    2506    2519     534    1048
CTETRA      4430       1    1448    1090    1069     955
CTETRA      4431       1     393     534     887     427
CTETRA      4432       1    3821     534    2505     887
CTETRA      4433       1    2507     534     532     824
CTETRA      4434       1    3822     532    2511     534
CTETRA      4435       1    3050    3051    3063     657
CTETRA      4436       1    2994    2995    3004     486
CTETRA      4437       1    2784    2785    2796     772
CTETRA      4438       1    1187    3008     620     958
CTETRA      4439       1    2799     505     771     506
CTETRA      4440       1    2694    2712    2713     800
CTETRA      4441       1    1947    1949    1952     951
CTETRA      4442       1    3822     393     845     534
CTETRA      4443       1     534     887     429    1048
CTETRA      4444       1    1927    2705     688     800
CTETRA      4445       1      39      42      34     622
CTETRA      4446       1    1960     688    1963     196
CTETRA      4447       1    2712     196     688      42
CTETRA      4448       1     688    1125     800      42
CTETRA      4449       1    2797    2811    2809     947
CTETRA      4450       1    1961     688     209    1125
CTETRA      4451       1    2037    2662    2660     897
CTETRA      4452       1    1960    1961     688     209
CTETRA      4453       1    1927     688    1961     800
CTETRA      4454       1    2582    1126    2585     618
CTETRA      4455       1    1297    1301    1300     303
CTETRA      4456       1    2694    2695    2810     992
CTETRA      4457       1    2582    2587    2588     303
CTETRA      4458       1    3736    1211    1203    2814
CTETRA      4459       1    2855    2856    3025     517
CTETRA      4460       1    4223    3031    1256    3032
CTETRA      4461       1    1300    2588    2587     303
CTETRA      4462       1    1294    2587    2591     618
CTETRA      4463       1    4239    2919    1287    2920
CTETRA      4464       1    3929    2734    1977    2747
CTETRA      4465       1    1294    1297    2587     618
CTETRA      4466       1    2631     563     878     565
CTETRA      4467       1    2913     878     564     565
CTETRA      4468       1    2937     415     565     569
CTETRA      4469       1    2739     790     678     502
CTETRA      4470       1    1258    1264    2645     978
CTETRA      4471       1    2653     565     933     569
CTETRA      4472       1    2630     565    2653     569
CTETRA      4473       1    2631     878    2656     565
CTETRA      4474       1     933     565     415     569
CTETRA      4475       1    3945    3946    2016    2690
CTETRA      4476       1    1236    1237    1239     325
CTETRA      4477       1    3064    3076    3071    1108
CTETRA      4478       1    3947    2022    2019     708
CTETRA      4479       1    3122     988    1140     612
CTETRA      4480       1    4059    3122    2219     988
CTETRA      4481       1    3122    3135    1140     988
CTETRA      4482       1    1221    2710    1225    1010
CTETRA      4483       1    3784    2426    1451    2427
CTETRA      4484       1    3067    3068     625     210
CTETRA      4485       1    3123     652     651     988
CTETRA      4486       1    2741     624     893    1093
CTETRA      4487       1    1228    3078    1234     504
CTETRA      4488       1    2212     653     652     988
CTETRA      4489       1    4059    2219    2213     988
CTETRA      4490       1    4218    1236    1235    3080
CTETRA      4491       1    3123     651    3135     988
CTETRA      4492       1    3678     896     212     170
CTETRA      4493       1       5     296       7     852
CTETRA      4494       1    1213    1214    1224      37
CTETRA      4495       1     212     896     213     736
CTETRA      4496       1    2977    1145    2982     991
CTETRA      4497       1    1723     170     212     314
CTETRA      4498       1     212     314     170     737
CTETRA      4499       1    3679    3680     136     139
CTETRA      4500       1     484     480     651     478
CTETRA      4501       1    3132     651    1038     478
CTETRA      4502       1    3129     318    3132    1038
CTETRA      4503       1    2692    2818    2815      34
CTETRA      4504       1    1234    3078     326     504
CTETRA      4505       1    1247    1248    1262     568
CTETRA      4506       1    2628    2643    2649    1124
CTETRA      4507       1    1996    1047    2852    1012
CTETRA      4508       1    2015    2016    2018     708
CTETRA      4509       1     780     651     484     480
CTETRA      4510       1    3098    3116    3111     683
CTETRA      4511       1    3943    2010    2007    2688
CTETRA      4512       1    2681    2684    2686     815
CTETRA      4513       1    2822     432     274     350
CTETRA      4514       1    3826    2822     274     350
CTETRA      4515       1    4240    2919    2922     607
CTETRA      4516       1     563     561     564     562
CTETRA      4517       1    1245    1251    1246     561
CTETRA      4518       1    1405     352    1406     277
CTETRA      4519       1    3826     274     352     350
CTETRA      4520       1    3816    1401    2823     350
CTETRA      4521       1    3816    1405    1401     350
CTETRA      4522       1    1263    2651    1275    1124
CTETRA      4523       1    1277    1278    1287     601
CTETRA      4524       1    2576    2659    2633     669
CTETRA      4525       1    3577      28     980      25
CTETRA      4526       1    3578    1642      28      24
CTETRA      4527       1    4234    4235    1246    2946
CTETRA      4528       1     935     937     815     508
CTETRA      4529       1     888     626     966      51
CTETRA      4530       1    2948    2954     508     569
CTETRA      4531       1    1246    1250    2946     561
CTETRA      4532       1     825     581     891      30
CTETRA      4533       1    1709    1725    1724     255
CTETRA      4534       1    1250    2942    2945    2946
CTETRA      4535       1    1263    2650    2651     568
CTETRA      4536       1    3409    3818    3580     557
CTETRA      4537       1    1511     555     750     626
CTETRA      4538       1    1642      28     453      48
CTETRA      4539       1    3819     495    2319     557
CTETRA      4540       1    1480     869     865    1033
CTETRA      4541       1     814     816     695     518
CTETRA      4542       1    1468    1033    1036    1035
CTETRA      4543       1    2670    2671    2686     816
CTETRA      4544       1    2631     563     926     878
CTETRA      4545       1    1018     699     694    1097
CTETRA      4546       1    2627    2643    2628    1124
CTETRA      4547       1    1036     865     869    1033
CTETRA      4548       1    3087     869    3158    1033
CTETRA      4549       1    4164    3087    1481    1033
CTETRA      4550       1    2006    2009     937     812
CTETRA      4551       1    2037    2660    2043     897
CTETRA      4552       1    1475    3276    1033    1035
CTETRA      4553       1    3086    3276    1036    1033
CTETRA      4554       1    4164    3276    3087    1033
CTETRA      4555       1    2916    2921    2922     853
CTETRA      4556       1    2939    2944    2940     856
CTETRA      4557       1    3086    1036     869    1033
CTETRA      4558       1    1276    1284    1277     601
CTETRA      4559       1    2642     601     926     602
CTETRA      4560       1    1087       6     166     176
CTETRA      4561       1    4264    3596    3595     704
CTETRA      4562       1    3664     282    3665     849
CTETRA      4563       1    4243    4244    1299    2921
CTETRA      4564       1     859    1084     849     852
CTETRA      4565       1    2911    2933    2932    1053
CTETRA      4566       1    3594    3595     477     850
CTETRA      4567       1    2010     935    2689     933
CTETRA      4568       1    3594     282    3664     850
CTETRA      4569       1    2843    2844     849    1084
CTETRA      4570       1    2025    2027     849     852
CTETRA      4571       1    2653    2656     711     565
CTETRA      4572       1    1298    1302    1301     851
CTETRA      4573       1    2025     849    2844    1084
CTETRA      4574       1    2027    2844     849     850
CTETRA      4575       1    2586    1126     617     618
CTETRA      4576       1    1602    1633      80      68
CTETRA      4577       1    2575    2586     822     570
CTETRA      4578       1    2575    2590     570     223
CTETRA      4579       1    1285     570    2590     223
CTETRA      4580       1    3702    1291    2591     570
CTETRA      4581       1    2654    2655    2690     708
CTETRA      4582       1    1118     343     339    1116
CTETRA      4583       1    3702    1288    1291     570
CTETRA      4584       1    1315    1316    1319     761
CTETRA      4585       1    1695     256     208     939
CTETRA      4586       1    2830     631    2831     882
CTETRA      4587       1    4301    3672    3586     151
CTETRA      4588       1     929     136     208     932
CTETRA      4589       1     256     208     939     161
CTETRA      4590       1    4245    1305    1302    2882
CTETRA      4591       1    1744    1760    1759      79
CTETRA      4592       1    1311    2885    1314     298
CTETRA      4593       1    2895    2903    1015    1014
CTETRA      4594       1    1310    1311    1314     298
CTETRA      4595       1    1634    1635     367      69
CTETRA      4596       1     208     939     928     134
CTETRA      4597       1     255     165     161     160
CTETRA      4598       1     929     408     932     165
CTETRA      4599       1    2604    2607    2605     761
CTETRA      4600       1    1303    1304    1307     304
CTETRA      4601       1    3699    1297    1300    2587
CTETRA      4602       1    4246    2880    1305    2882
CTETRA      4603       1    1328    1329    1331     779
CTETRA      4604       1    1602    1606    1603     142
CTETRA      4605       1     255     929     208     165
CTETRA      4606       1    2321    2323     550     552
CTETRA      4607       1    2053    2592    2593    2602
CTETRA      4608       1    4055    2195    2190     806
CTETRA      4609       1    2620     103     553     105
CTETRA      4610       1    2189    2192     806     804
CTETRA      4611       1    3094    3095    1072     806
CTETRA      4612       1    4055    2190    3109     806
CTETRA      4613       1    3095    3109     807     806
CTETRA      4614       1    1892    1908    1907     190
CTETRA      4615       1    2192     807    3109     806
CTETRA      4616       1    2612    2623    2619    1016
CTETRA      4617       1    2977     952    1146     623
CTETRA      4618       1    1310    1313     304     298
CTETRA      4619       1     771     621     490     623
CTETRA      4620       1    4252    1326    1323    2899
CTETRA      4621       1    4141    1367    1358    1147
CTETRA      4622       1    2810    1146     952     623
CTETRA      4623       1     771     620     621     623
CTETRA      4624       1    2465    2468    2467     698
CTETRA      4625       1    2817     506     771     623
CTETRA      4626       1    2862     851    2921     853
CTETRA      4627       1     698     975     974     464
CTETRA      4628       1    4244    2921    2863     851
CTETRA      4629       1    2862    1085    2881     851
CTETRA      4630       1    2088    2089    2092     234
CTETRA      4631       1     145     261     146    1123
CTETRA      4632       1    4244    2863    1302     851
CTETRA      4633       1    2442     953    1089     955
CTETRA      4634       1    2015     708    2018    1053
CTETRA      4635       1    3094    3125    3124     650
CTETRA      4636       1    2089     199     230     234
CTETRA      4637       1     780     650     651    1038
CTETRA      4638       1     780    1115     650     872
CTETRA      4639       1    3131     651     650    1038
CTETRA      4640       1    3786    2332    1450    2425
CTETRA      4641       1    3131    3134     650     651
CTETRA      4642       1    3126    3131     650     872
CTETRA      4643       1    2334    2335    2460    1123
CTETRA      4644       1    2158    2165    2164     146
CTETRA      4645       1    2512    2513    2522     692
CTETRA      4646       1     711     713     708    1053
CTETRA      4647       1    3126     650    1072     872
CTETRA      4648       1    4261     167       5      98
CTETRA      4649       1    3339     467    1166     324
CTETRA      4650       1    3968    4261    3337     959
CTETRA      4651       1    3338    1160     164     324
CTETRA      4652       1    2452    2461    2453     218
CTETRA      4653       1    1354    1356    2476    1066
CTETRA      4654       1    3795    3796    1355    2443
CTETRA      4655       1     283     455     740     286
CTETRA      4656       1    3939    2670    1989    2679
CTETRA      4657       1    2670    2679    2671     816
CTETRA      4658       1    3339    3836     323      98
CTETRA      4659       1    2048     897     339    1116
CTETRA      4660       1    2043    2049    2048     897
CTETRA      4661       1    2049     897    2660     339
CTETRA      4662       1    2671    2679    2675     695
CTETRA      4663       1    2051     343     339     340
CTETRA      4664       1    1351    1354    1355     945
CTETRA      4665       1    2461    2463    2462     464
CTETRA      4666       1    2660     897    2661     339
CTETRA      4667       1    2449    1067    2475     943
CTETRA      4668       1    2445     693    2469    1003
CTETRA      4669       1    2531    2561    2563    1142
CTETRA      4670       1    1421    1427    1426     677
CTETRA      4671       1    3951    2049    2660    2667
CTETRA      4672       1    1394     842    1099     846
CTETRA      4673       1     556     387     386     149
CTETRA      4674       1    2450    2465    2451    1052
CTETRA      4675       1    1744     398      78     386
CTETRA      4676       1     355      80     964     238
CTETRA      4677       1     222     150      76     144
CTETRA      4678       1      74      76     149      77
CTETRA      4679       1     859    1034    1084     852
CTETRA      4680       1    1034    1107    1084    1106
CTETRA      4681       1    2123    2126    2553     908
CTETRA      4682       1    1364    1369    1368    1131
CTETRA      4683       1    3573    1676    1677     543
CTETRA      4684       1    4100    2106    3253    3254
CTETRA      4685       1     348     322    1106     852
CTETRA      4686       1    2315     861     348     322
CTETRA      4687       1    1034    1107     348     862
CTETRA      4688       1    4144    1368    1369    3321
CTETRA      4689       1    2824    3222    3221     533
CTETRA      4690       1    1359    1142     863    1147
CTETRA      4691       1    1375    3234    3257     637
CTETRA      4692       1     524     104     862     523
CTETRA      4693       1    2309    2315     861     348
CTETRA      4694       1    1375    1376    1378     424
CTETRA      4695       1    3845    3846    2132    2551
CTETRA      4696       1    3534    1908    1582    1584
CTETRA      4697       1    2309     553     347     348
CTETRA      4698       1    1932    2783    2802     773
CTETRA      4699       1    2790     191    2791     996
CTETRA      4700       1    2751    1076     191    1045
CTETRA      4701       1    2751    2789     191    1076
CTETRA      4702       1     191     772     776    1076
CTETRA      4703       1    3823     532     844     279
CTETRA      4704       1    2126    2552    2553     903
CTETRA      4705       1     845     532     313     306
CTETRA      4706       1    2784     191    2789    1076
CTETRA      4707       1    2674     699    2675     696
CTETRA      4708       1    2674    2676     345     697
CTETRA      4709       1    2674     344     699     697
CTETRA      4710       1     822     570     617     853
CTETRA      4711       1    3812    3813    1392    2510
CTETRA      4712       1    3214     692     902     848
CTETRA      4713       1    1669     982     889     491
CTETRA      4714       1    1667     481     748     413
CTETRA      4715       1     748     481     383     413
CTETRA      4716       1    1664     369    1665     748
CTETRA      4717       1    3813    1395    1392    1099
CTETRA      4718       1    3817    1405    2821     352
CTETRA      4719       1    1409    2372    1456     321
CTETRA      4720       1    1402    1403    1406     278
CTETRA      4721       1    1852    1868    1867     722
CTETRA      4722       1    3399    1645    1647     901
CTETRA      4723       1     748     383     481     985
CTETRA      4724       1    4117    4118    2838     271
CTETRA      4725       1    1839    1855    1854     440
CTETRA      4726       1    1666     829     262     985
CTETRA      4727       1    1666     748    1667     481
CTETRA      4728       1    2206    2211     781     653
CTETRA      4729       1    2199     781    2762     280
CTETRA      4730       1    3403    1509    1512     628
CTETRA      4731       1    1823    1824    1839     920
CTETRA      4732       1    2211    2326     781     653
CTETRA      4733       1    3013     876    1064     485
CTETRA      4734       1    3448    4289    4126    4116
CTETRA      4735       1    2327     780    1115     781
CTETRA      4736       1    2327    1115    2762     781
CTETRA      4737       1    1994     697    2677     696
CTETRA      4738       1    3898    2326    2762     781
CTETRA      4739       1    3898    2762    2205     781
CTETRA      4740       1    2850    3010    3017     672
CTETRA      4741       1    3235    3240     973     424
CTETRA      4742       1    1377    2501    2523     422
CTETRA      4743       1    1377    1380    1379     969
CTETRA      4744       1    1795     636    1552     640
CTETRA      4745       1    1923     697    1990    1012
CTETRA      4746       1    3434      95    1550     640
CTETRA      4747       1    3498    1550    1794    1552
CTETRA      4748       1    1431    1432     639     482
CTETRA      4749       1    4190    1425    1430    3116
CTETRA      4750       1    1429    3115    1430     946
CTETRA      4751       1    1193    3014    3015     485
CTETRA      4752       1    2177    2184    2186    1110
CTETRA      4753       1    3434    1552     894     640
CTETRA      4754       1    3935    2676    2677     697
CTETRA      4755       1    1417    1419    1044     675
CTETRA      4756       1     680     676     683     677
CTETRA      4757       1    1428    1432    1431     482
CTETRA      4758       1    3751    3752    1415    2776
CTETRA      4759       1    1430     946     683     677
CTETRA      4760       1    3935    3936    1994    2677
CTETRA      4761       1    3098    3116     683     675
CTETRA      4762       1    4191    1425    3116     675
CTETRA      4763       1    1430     683    3116     675
CTETRA      4764       1    1388    1389     842     843
CTETRA      4765       1    2529     691    1099     842
CTETRA      4766       1    2510    2529    1099     842
CTETRA      4767       1    2777    1103    2778     679
CTETRA      4768       1     651     652     653     988
CTETRA      4769       1    3936    1993    2677    2678
CTETRA      4770       1    3812    1392    1389     842
CTETRA      4771       1    1975    1980    3019     625
CTETRA      4772       1    2336    2437    2435     900
CTETRA      4773       1    2334    2439    2335    1121
CTETRA      4774       1    3759    3760    1436    2373
CTETRA      4775       1    3084     192    3168     976
CTETRA      4776       1    2527     841     842     843
CTETRA      4777       1    2666    2668    2667     339
CTETRA      4778       1    1333    1334    1442    1032
CTETRA      4779       1    2502    2503     685     701
CTETRA      4780       1    2496    2515    1148     558
CTETRA      4781       1    3844    2496    2135     558
CTETRA      4782       1    3844    2135    2138     558
CTETRA      4783       1    3085    3086    3271    1036
CTETRA      4784       1    2515     685    1148     558
CTETRA      4785       1    2612    1016     265    1071
CTETRA      4786       1    4160    1439    1445    3277
CTETRA      4787       1     265     267     233    1071
CTETRA      4788       1    1194    1195    1197     958
CTETRA      4789       1    1089    1090    1121     464
CTETRA      4790       1     264     265     267     233
CTETRA      4791       1    2897     267     265    1071
CTETRA      4792       1    3766    1466    1460    2351
CTETRA      4793       1     264     596     265     233
CTETRA      4794       1    2226     611    2243     612
CTETRA      4795       1    2897     265    1014    1071
CTETRA      4796       1    1408    1409    1455     321
CTETRA      4797       1    4177    4178    1476    3203
CTETRA      4798       1    2231    2232    2234     758
CTETRA      4799       1    2344    2345     760     755
CTETRA      4800       1    3094    1072     652     806
CTETRA      4801       1    1409    1422    2371     321
CTETRA      4802       1    1016    1014     265    1071
CTETRA      4803       1    3428     314    1532     515
CTETRA      4804       1    1178     918     314     515
CTETRA      4805       1    3429    1542    1543     314
CTETRA      4806       1    4055    3094    2195     806
CTETRA      4807       1     918     703     314     737
CTETRA      4808       1    1378    1381    3244     424
CTETRA      4809       1    1532     515     314     597
CTETRA      4810       1     800     622    1125    1146
CTETRA      4811       1    2694     622     800    1146
CTETRA      4812       1    2694    2816     622    1146
CTETRA      4813       1    2967    2968     622    1146
CTETRA      4814       1    1461    1462    1468    1101
CTETRA      4815       1    3057    3060      42     622
CTETRA      4816       1    2967      39     621     622
CTETRA      4817       1    1493    2407    2409     870
CTETRA      4818       1    2816     622    1146     623
CTETRA      4819       1    1496    1497    1499     660
CTETRA      4820       1     621      39     490     622
CTETRA      4821       1    2433     409     801     661
CTETRA      4822       1    3165     976     268     661
CTETRA      4823       1    2420     662     328     661
CTETRA      4824       1    3781    3782    1437    2428
CTETRA      4825       1    1479    1480    1486     864
CTETRA      4826       1    3164     328     662     661
CTETRA      4827       1    2418    2438    2440    1101
CTETRA      4828       1     268     976     801     661
CTETRA      4829       1    3271    1069    1036    1035
CTETRA      4830       1    3097    3111    3127     946
CTETRA      4831       1     999    1000     990     501
CTETRA      4832       1     999    1001    1000     501
CTETRA      4833       1    2571    1001     333     344
CTETRA      4834       1    2348    2360    2352     300
CTETRA      4835       1    2572    1001     344     345
CTETRA      4836       1    2571    2572    1001     344
CTETRA      4837       1    2396    2405    2400     871
CTETRA      4838       1     333    1001     334     336
CTETRA      4839       1    3034     769     335     336
CTETRA      4840       1     333     344    1001     336
CTETRA      4841       1    1001     344    1000     336
CTETRA      4842       1    2570    2571     333     344
CTETRA      4843       1     488    1141     486     795
CTETRA      4844       1    3003     777    1141    1045
CTETRA      4845       1    1453     539    1454     300
CTETRA      4846       1     961     876    1141    1045
CTETRA      4847       1     961    1141     488    1076
CTETRA      4848       1    2993    1141     876    1045
CTETRA      4849       1    2993    3003    1141    1045
CTETRA      4850       1    4168    4169    1499    3156
CTETRA      4851       1    2396    2400    2397     327
CTETRA      4852       1    1612     738     839     559
CTETRA      4853       1    3300     784     783     944
CTETRA      4854       1    1500    3157    3156     659
CTETRA      4855       1    2407    2412    2416     870
CTETRA      4856       1    2236    2237    2238    1136
CTETRA      4857       1    2347    2360    2348     300
CTETRA      4858       1    2341    2342    2399    1149
CTETRA      4859       1    3923    3924    1963    2697
CTETRA      4860       1    1614     446     839     738
CTETRA      4861       1    2218     484     653     988
CTETRA      4862       1    3171    3177    3172     756
CTETRA      4863       1    3379    3551    1658     544
CTETRA      4864       1    3132    1140     651     478
CTETRA      4865       1    3132    3135     651    1140
CTETRA      4866       1    2811     883    2817     952
CTETRA      4867       1    3123    3124     651     652
CTETRA      4868       1    4153    4154    1348    3306
CTETRA      4869       1    1188     487     488     485
CTETRA      4870       1    1808    1565    1809     588
CTETRA      4871       1     780     651     650     653
CTETRA      4872       1     780     484     651     653
CTETRA      4873       1    1777     705     576    1138
CTETRA      4874       1    3816    3817    1405    2821
CTETRA      4875       1    3404    3823    3822     844
CTETRA      4876       1     630     626     914     438
CTETRA      4877       1    3445    1405    3817     352
CTETRA      4878       1    1839    1840    1855     440
CTETRA      4879       1     709     705     583     577
CTETRA      4880       1    1841     287    1856     439
CTETRA      4881       1    3460    1510    3461     914
CTETRA      4882       1    1778     576      84    1138
CTETRA      4883       1    1763    1778     576      84
CTETRA      4884       1    1777     705    1792     707
CTETRA      4885       1    3563    1657    1655     725
CTETRA      4886       1     709     706     705     577
CTETRA      4887       1     997     577     576     707
CTETRA      4888       1    1776     997    1777     707
CTETRA      4889       1    2581    2595    2599     619
CTETRA      4890       1    2595    2599     619     346
CTETRA      4891       1    2878    1049     302     346
CTETRA      4892       1    2883     302     303     346
CTETRA      4893       1    2803    2804    2808     948
CTETRA      4894       1    3625    1671     889    1023
CTETRA      4895       1    2594    2604    1049     346
CTETRA      4896       1    2595     619     303     346
CTETRA      4897       1    2604     302    1049     346
CTETRA      4898       1    4154    1334    3306    3307
CTETRA      4899       1    3099    3101    1102    1144
CTETRA      4900       1    3099    1043     683    1150
CTETRA      4901       1    2758    1103    1144    1150
CTETRA      4902       1    1334    1343    1348     782
CTETRA      4903       1    1103    1043    1102    1150
CTETRA      4904       1    3517    3518    1808    1570
CTETRA      4905       1    1824    1840    1839     436
CTETRA      4906       1    2758     500     680    1150
CTETRA      4907       1    1349    3309    1350     783
CTETRA      4908       1    1900    1916    1915     126
CTETRA      4909       1    1803    1566    1804     498
CTETRA      4910       1    3394    3395    1517     925
CTETRA      4911       1    1667     982    1669     491
CTETRA      4912       1     774     883     949     947
CTETRA      4913       1    3390    1515     492     497
CTETRA      4914       1    2973     774    2984     947
CTETRA      4915       1    3027    3031    3032     770
CTETRA      4916       1    1810    1578    1811    1065
CTETRA      4917       1    2817     883     506     952
CTETRA      4918       1    1805    1821    1820     291
CTETRA      4919       1    2973    3002     774     795
CTETRA      4920       1    2978     506     883     952
CTETRA      4921       1    2711    2717     657      42
CTETRA      4922       1    3063    3069    1093     657
CTETRA      4923       1    3050    3051     657      42
CTETRA      4924       1    2716     658    1093     657
CTETRA      4925       1    2717      40     657      42
CTETRA      4926       1    3450    1526    1527     546
CTETRA      4927       1     656    1093     658     657
CTETRA      4928       1    1214    1218    1216      37
CTETRA      4929       1    3638     728     789     725
CTETRA      4930       1    1528    1086     368     378
CTETRA      4931       1    3450    1527    1520     381
CTETRA      4932       1    1867     722    1002     923
CTETRA      4933       1    1853      58    1868     722
CTETRA      4934       1    1836    1837    1852     154
CTETRA      4935       1    1837     722     154     395
CTETRA      4936       1     722     634     923     922
CTETRA      4937       1    2472     198     811     465
CTETRA      4938       1     722     899     634     922
CTETRA      4939       1    3618    2257    2258     583
CTETRA      4940       1    2259    2260     253     729
CTETRA      4941       1    1346    1348    1347     784
CTETRA      4942       1     689     902     903     351
CTETRA      4943       1    2124    2126     903     351
CTETRA      4944       1    2132     558     351     316
CTETRA      4945       1    3215     902    3230     316
CTETRA      4946       1    2496    1148     351     558
CTETRA      4947       1    2828     493     330     329
CTETRA      4948       1    2496    1148    2497     351
CTETRA      4949       1    3696    3697    1306    2609
CTETRA      4950       1    2548     903    2552     351
CTETRA      4951       1    2126    2552     903     351
CTETRA      4952       1    3051     211    3069     657
CTETRA      4953       1    1680    1545    1541     939
CTETRA      4954       1     246     247     775     248
CTETRA      4955       1    1026     247     366     364
CTETRA      4956       1    3344    3345    1164    1082
CTETRA      4957       1    3417    1547    1541     258
CTETRA      4958       1    3432    1551     417     636
CTETRA      4959       1    3343    3344    1163      99
CTETRA      4960       1    3425     246     775     248
CTETRA      4961       1    4150    4151    1350    3308
CTETRA      4962       1    1172     365      61     775
CTETRA      4963       1     511     366     917     775
CTETRA      4964       1    1697     461     466     259
CTETRA      4965       1    1171     511     917     775
CTETRA      4966       1     212     170     896     736
CTETRA      4967       1    3452    1528     987     378
CTETRA      4968       1    1154    1176     938     172
CTETRA      4969       1    2256      95      90    1139
CTETRA      4970       1    1738    1095     212     731
CTETRA      4971       1     918     314     516     737
CTETRA      4972       1    3439    2270    2271     235
CTETRA      4973       1    1739    1755    1754     940
CTETRA      4974       1     731     213     447     736
CTETRA      4975       1    3426    1173    3427     917
CTETRA      4976       1    3673    1784    1561    1077
CTETRA      4977       1    3501    1791    1553    1554
CTETRA      4978       1    1301    1305    1304     303
CTETRA      4979       1     731     736     447     840
CTETRA      4980       1    2419     662     661     663
CTETRA      4981       1    3162     662    3164     328
CTETRA      4982       1    2419     661    2436     663
CTETRA      4983       1    1743     398    1758     421
CTETRA      4984       1    2394     864    2419     865
CTETRA      4985       1    1744    1745    1760      79
CTETRA      4986       1    2395    2420     662     328
CTETRA      4987       1     499    1060     184     182
CTETRA      4988       1    3162     659     869     662
CTETRA      4989       1     222     186     235      76
CTETRA      4990       1    1617     514     512     240
CTETRA      4991       1    1836     154     153     179
CTETRA      4992       1    3444    2254    4287     813
CTETRA      4993       1     910     181     179     716
CTETRA      4994       1     293     476    1020     716
CTETRA      4995       1     155     154     395     157
CTETRA      4996       1     155     715     154     157
CTETRA      4997       1     175     183     185     162
CTETRA      4998       1      36     366     511      62
CTETRA      4999       1    1852     154     722     923
CTETRA      5000       1    2054    2055    2061     267
CTETRA      5001       1    2583    2609    2607     304
CTETRA      5002       1    3440    1563    1549     741
CTETRA      5003       1    4263    1599    1598     176
CTETRA      5004       1     970     690     973     642
CTETRA      5005       1    3236     971     973     644
CTETRA      5006       1    3236     973    3238     642
CTETRA      5007       1    3237     902     566     642
CTETRA      5008       1    2541    1003     717    1127
CTETRA      5009       1    2469     693     252    1003
CTETRA      5010       1     475     476     910     180
CTETRA      5011       1    1845    1846    1861     537
CTETRA      5012       1    3328     633     693    1003
CTETRA      5013       1    1681     939    1541     258
CTETRA      5014       1    3380     379    1660    1086
CTETRA      5015       1    3384    1664    3547     262
CTETRA      5016       1    3325    3328     693    1003
CTETRA      5017       1    3379    1520    1527     379
CTETRA      5018       1    3386    1530     262     829
CTETRA      5019       1    3623    3624    2301     137
CTETRA      5020       1    1667    1669    1668     481
CTETRA      5021       1    3324    3327    1003    1127
CTETRA      5022       1     885     717     664    1003
CTETRA      5023       1    3327     717    1003    1127
CTETRA      5024       1    3913    1942    1936    2806
CTETRA      5025       1    3538    1590    1904    1591
CTETRA      5026       1    1265    1267    1270     977
CTETRA      5027       1    4230    1261    1269    2940
CTETRA      5028       1     633     252     693    1003
CTETRA      5029       1     867     410     327     871
CTETRA      5030       1    3145     410     867     871
CTETRA      5031       1    3141     867    3145     410
CTETRA      5032       1    2653     933    2682     569
CTETRA      5033       1    1826    1827    1842     888
CTETRA      5034       1    2629     567    2630     569
CTETRA      5035       1     384     985     931     830
CTETRA      5036       1     389     390     405     126
CTETRA      5037       1     262     985     987     986
CTETRA      5038       1    1529     262    1530     829
CTETRA      5039       1    4235    1246    2946     561
CTETRA      5040       1    4236    4237    1279    2947
CTETRA      5041       1     581     580      31      51
CTETRA      5042       1     361     819     983     413
CTETRA      5043       1    3386     262    1666     829
CTETRA      5044       1    3386    1666    1668     829
CTETRA      5045       1    3686     751    1029     536
CTETRA      5046       1    3564    3638    3637     789
CTETRA      5047       1    3387     827    1530     829
CTETRA      5048       1    3681    3538    4295    1590
CTETRA      5049       1    3386    1668    3387     829
CTETRA      5050       1    1861    1877    1876     720
CTETRA      5051       1    2279     789    2286     739
CTETRA      5052       1    1666     481     829     985
CTETRA      5053       1     197     199     198     975
CTETRA      5054       1    4251    4252    1323    2899
CTETRA      5055       1    1674    1677    1676     293
CTETRA      5056       1     219     197     218     464
CTETRA      5057       1    3290    3292     197     199
CTETRA      5058       1    3466    1595    1589     405
CTETRA      5059       1    3289    3291     219     197
CTETRA      5060       1    2065     613    2075    1055
CTETRA      5061       1    3284    3289     219     197
CTETRA      5062       1    3284     197     219     464
CTETRA      5063       1    3267     197    3284     975
CTETRA      5064       1    3267     199     197     975
CTETRA      5065       1     105    1016    1015    1014
CTETRA      5066       1    2378    1050    1037     480
CTETRA      5067       1    1434    2369    1050     639
CTETRA      5068       1    2368    1050    2369     639
CTETRA      5069       1    2368    2378    1050    1098
CTETRA      5070       1    1751     249     250     509
CTETRA      5071       1      36     250     868      62
CTETRA      5072       1     241     250     868     649
CTETRA      5073       1    1610     166     960     408
CTETRA      5074       1    1694    1695    1710     208
CTETRA      5075       1    3444    1561    1560    1077
CTETRA      5076       1    3968    1597    1600     959
CTETRA      5077       1     511      62     241     510
CTETRA      5078       1    1596    1599    1597     166
CTETRA      5079       1     249     250     509     242
CTETRA      5080       1     249     648     250     242
CTETRA      5081       1     249     648     913     250
CTETRA      5082       1    2758    2759     500    1144
CTETRA      5083       1    4276    3607    1616     239
CTETRA      5084       1    4264    4300    3987    3663
CTETRA      5085       1    3675     942     560    1039
CTETRA      5086       1     805     807    1151    1144
CTETRA      5087       1    4287     797    1561    1077
CTETRA      5088       1    3974    3369    3368     918
CTETRA      5089       1    2761    1144    1109     804
CTETRA      5090       1    3676    3677     940     411
CTETRA      5091       1    3975    3368    3367    1617
CTETRA      5092       1     873     778     269     857
CTETRA      5093       1    2758    1144     500    1150
CTETRA      5094       1    1109    1103    1102    1144
CTETRA      5095       1    1109    1103     674    1102
CTETRA      5096       1    3065     326     790     502
CTETRA      5097       1    2007     935    2009     812
CTETRA      5098       1     935     815     937     812
CTETRA      5099       1    2683    2685    2686     815
CTETRA      5100       1    1303    1306    2583     304
CTETRA      5101       1    3600    1611      52     402
CTETRA      5102       1    3675    3676    1754     940
CTETRA      5103       1    1637     453    1638     454
CTETRA      5104       1    3646      24    3647      26
CTETRA      5105       1    3431    2265    2266    1059
CTETRA      5106       1     797     942     276     810
CTETRA      5107       1     514     512     513     515
CTETRA      5108       1    1721    1737    1736     836
CTETRA      5109       1    3942    2004    2683     812
CTETRA      5110       1    2007    2688     935     812
CTETRA      5111       1    2684     935    2688     812
CTETRA      5112       1    1779    1780    1794     640
CTETRA      5113       1    3619    1630     709     583
CTETRA      5114       1    3644     205     448     454
CTETRA      5115       1    3942    2683    2688     812
CTETRA      5116       1    2684     815     935     812
CTETRA      5117       1    3598     407    2273     175
CTETRA      5118       1    1622     868    1624     649
CTETRA      5119       1    3615    3616    2256      96
CTETRA      5120       1    4273    3613    3612     895
CTETRA      5121       1    3683    3684     655     582
CTETRA      5122       1    3444     732     813    1077
CTETRA      5123       1    1619    1621    1620     241
CTETRA      5124       1    1716    1717    1732     989
CTETRA      5125       1    2274    1060     704     732
CTETRA      5126       1     407     183     175     402
CTETRA      5127       1     407     813     732     183
CTETRA      5128       1     940     184    1039     183
CTETRA      5129       1    1688    1689    1704     248
CTETRA      5130       1    2471     808     984     944
CTETRA      5131       1    1539     116     590     117
CTETRA      5132       1    2480     984    1066     944
CTETRA      5133       1    1733    1026    1734      93
CTETRA      5134       1    2471     984    2480     944
CTETRA      5135       1    2479     945    2480     984
CTETRA      5136       1    4007    2932    2029    1054
CTETRA      5137       1    2035    2036    1117    1054
CTETRA      5138       1    2930    2936    1117    1054
CTETRA      5139       1    2931    1091    2932    1054
CTETRA      5140       1    4007    2936    2932    1054
CTETRA      5141       1     668     617     822     823
CTETRA      5142       1    2923     668     669     823
CTETRA      5143       1    2862     834    2864    1085
CTETRA      5144       1     236     238      78     147
CTETRA      5145       1      58     634     722     899
CTETRA      5146       1     834     617     851     853
CTETRA      5147       1    4238    1280    2915    2920
CTETRA      5148       1    2861    2868     834     823
CTETRA      5149       1    3467    2289    2290    1027
CTETRA      5150       1    3447    3448    1402     353
CTETRA      5151       1    1550      95    1138     640
CTETRA      5152       1     576    1139      84    1138
CTETRA      5153       1    1764      87      89      84
CTETRA      5154       1    1762      83    1763     576
CTETRA      5155       1    3399    3539    3445    1647
CTETRA      5156       1    3400    3827    3401     352
CTETRA      5157       1    3400    1508     156    1008
CTETRA      5158       1      83      84     576      85
CTETRA      5159       1    3402    3826    3825     273
CTETRA      5160       1      90      85      95      86
CTETRA      5161       1    1763      87    1764      84
CTETRA      5162       1    3683     655    1062    1063
CTETRA      5163       1    3478    1590    1591    1132
CTETRA      5164       1    1319    1320    1323     765
CTETRA      5165       1    3638    2285    2286     728
CTETRA      5166       1    1654    1655    1656     541
CTETRA      5167       1    2615    2616     596     233
CTETRA      5168       1     267     270     233    1049
CTETRA      5169       1    2593    2617     233    1049
CTETRA      5170       1     267     233    1071    1049
CTETRA      5171       1    2612     265    2617    1071
CTETRA      5172       1    3432     729    2259     636
CTETRA      5173       1    3433     254     894     636
CTETRA      5174       1    3478    2283    4291    1096
CTETRA      5175       1    4251    1323    1320    2876
CTETRA      5176       1    1889    1063     174    1132
CTETRA      5177       1    1830    1831    1075     374
CTETRA      5178       1    3433     254    2261     894
CTETRA      5179       1    3433     894    1552     636
CTETRA      5180       1     648     729     417     636
CTETRA      5181       1    1668     481    1669     445
CTETRA      5182       1    3376    3377    1526     545
CTETRA      5183       1    1864    1880    1879    1058
CTETRA      5184       1    3537    1905    1580    1591
CTETRA      5185       1     767     338     337    1097
CTETRA      5186       1    1906    1907    1583     911
CTETRA      5187       1    3534    1907    1908    1584
CTETRA      5188       1    1637    1653    1651     452
CTETRA      5189       1    2570     337    2625    1097
CTETRA      5190       1    3569    1669    1667     982
CTETRA      5191       1    2569    1073    2727     979
CTETRA      5192       1    1073     769     337    1097
CTETRA      5193       1    2570    1073     337    1097
CTETRA      5194       1    1876    1892    1891     820
CTETRA      5195       1    3386    3546    3387    1668
CTETRA      5196       1    3392    3393    1513     910
CTETRA      5197       1    3021     501    3022     502
CTETRA      5198       1    2876    2877    2901     297
CTETRA      5199       1    3035     334     501     336
CTETRA      5200       1    2731    2738    2732     334
CTETRA      5201       1     158       6       8     182
CTETRA      5202       1    3444    2273    2254     813
CTETRA      5203       1    1680    1681    1696     939
CTETRA      5204       1    1001    1000     501     336
CTETRA      5205       1    2732    2733    2742     999
CTETRA      5206       1    3579      28    1642      48
CTETRA      5207       1    2732     999    2742     501
CTETRA      5208       1    1695    1696     256     939
CTETRA      5209       1    1596     175    1598     166
CTETRA      5210       1    3618      90    1628      92
CTETRA      5211       1    2742     999     616     501
CTETRA      5212       1    2740     501    2742     502
CTETRA      5213       1     854     337     767     338
CTETRA      5214       1    1697     258     461     259
CTETRA      5215       1    2740     334     501     502
CTETRA      5216       1    2540     664     460     717
CTETRA      5217       1    3362    1171    1172      61
CTETRA      5218       1    2569    2725    2727    1073
CTETRA      5219       1    1681    1682    1697     461
CTETRA      5220       1    3249     462    3250     717
CTETRA      5221       1     885     460     664     717
CTETRA      5222       1    4269    1631    3621     709
CTETRA      5223       1    3250     462     885     717
CTETRA      5224       1    1776    1777    1792     707
CTETRA      5225       1    3981    3356    1636     430
CTETRA      5226       1     399     915     964     907
CTETRA      5227       1    2570    2625     699    1097
CTETRA      5228       1      91      93      92      85
CTETRA      5229       1    3986    3349    3348    1604
CTETRA      5230       1    2570     344     333    1097
CTETRA      5231       1    3347    1159    1155     121
CTETRA      5232       1    2275     740     455     396
CTETRA      5233       1     554    1056     631     215
CTETRA      5234       1    3534    3535    1907    1584
CTETRA      5235       1    3670    2834    1056     152
CTETRA      5236       1    3587    3671     554     152
CTETRA      5237       1    2834    2836    1056     152
CTETRA      5238       1    3370     918    1615    1079
CTETRA      5239       1    1735    1751    1750     250
CTETRA      5240       1    3672    1329    2836     152
CTETRA      5241       1    1327    1329    1328     779
CTETRA      5242       1    3339    3340    1166     467
CTETRA      5243       1    3670    1056     554     152
CTETRA      5244       1     420     416     100     285
CTETRA      5245       1    1719    1720    1735      36
CTETRA      5246       1    3673     797     942    1077
CTETRA      5247       1    1618    1620     253     241
CTETRA      5248       1    1329    1056     152     779
CTETRA      5249       1    1169     589     430     251
CTETRA      5250       1    1719    1735    1734    1026
CTETRA      5251       1    1183    1256    1255     770
CTETRA      5252       1     511     513     512     917
CTETRA      5253       1    3489    1690    1689    1536
CTETRA      5254       1     430     585     244     592
CTETRA      5255       1    3356    1636     430     904
CTETRA      5256       1     366     513     917    1083
CTETRA      5257       1    4223    1255    1256    3031
CTETRA      5258       1    1673     293    1674     921
CTETRA      5259       1    1270     517     854     978
CTETRA      5260       1    3964    3965    2023    2313
CTETRA      5261       1     153     923    1020     716
CTETRA      5262       1     179    1020     476     716
CTETRA      5263       1    1672     474    1678     476
CTETRA      5264       1    4260    3986    4302    3348
CTETRA      5265       1     608     606     926     927
CTETRA      5266       1    1113    1118    1143     927
CTETRA      5267       1    2854    3033     694     338
CTETRA      5268       1     699     695     694     338
CTETRA      5269       1    3597    3598    2273     175
CTETRA      5270       1    2854     694    2961     695
CTETRA      5271       1    3689    2324    1330     135
CTETRA      5272       1    3442    2275    2276     455
CTETRA      5273       1    1177     703     170     314
CTETRA      5274       1    3036    1018    3040     694
CTETRA      5275       1    3628    2297    2293     982
CTETRA      5276       1    2961     694    1047     518
CTETRA      5277       1    3040     694    1018    1012
CTETRA      5278       1    3596    1598    3597     704
CTETRA      5279       1     895      88     894     649
CTETRA      5280       1    2376    2392     484     818
CTETRA      5281       1    2376    2390     818     371
CTETRA      5282       1    2267     222     150     186
CTETRA      5283       1     284     521     283     286
CTETRA      5284       1    2389     818    2390     371
CTETRA      5285       1    2389     809    2391     818
CTETRA      5286       1    1759    1774      74      75
CTETRA      5287       1    2391    2392     818     478
CTETRA      5288       1    2382     478    2391     359
CTETRA      5289       1    4223    4224    1255    3031
CTETRA      5290       1     610     818    1140     478
CTETRA      5291       1    1893     819     382     190
CTETRA      5292       1    1877     720    1878     819
CTETRA      5293       1    1878     819     412     382
CTETRA      5294       1    3617    3618    2258      90
CTETRA      5295       1     720     383     819     749
CTETRA      5296       1     112     819     361     749
CTETRA      5297       1    1087       7     167       6
CTETRA      5298       1    2842    1034    1107    1084
CTETRA      5299       1    1698     742    1713     466
CTETRA      5300       1    1760    1776    1775     957
CTETRA      5301       1    3584    2271    2270     360
CTETRA      5302       1     572     107     118     102
CTETRA      5303       1    4274    3611    4275    1620
CTETRA      5304       1    3610    2259    2260     253
CTETRA      5305       1    1034     524    1107     862
CTETRA      5306       1     524    1107     862     266
CTETRA      5307       1    3026    3033     767    1097
CTETRA      5308       1    3616    3617    2258      90
CTETRA      5309       1     699     338     694    1097
CTETRA      5310       1    3026    3031    3027     769
CTETRA      5311       1     517     854     338     341
CTETRA      5312       1    1073     337     769     768
CTETRA      5313       1    3435    2256    2258    1139
CTETRA      5314       1    3611    1620    1622     649
CTETRA      5315       1    2672     695     699     338
CTETRA      5316       1    1765    1780    1779      89
CTETRA      5317       1    1658     260     379     380
CTETRA      5318       1    4270    1630    3619     583
CTETRA      5319       1      89     894     254     636
CTETRA      5320       1    3507    3508    1784    1560
CTETRA      5321       1    2619    2620     553     105
CTETRA      5322       1     369     748     383     749
CTETRA      5323       1    1790    1554    1555      94
CTETRA      5324       1    3438    1554     956      94
CTETRA      5325       1    1771    1787    1786     456
CTETRA      5326       1    3384     262    1529     986
CTETRA      5327       1    2841    2845    1084     879
CTETRA      5328       1    3581    2269    4298     954
CTETRA      5329       1    1775    1791    1790      94
CTETRA      5330       1    3345    3830    3829     127
CTETRA      5331       1    1892    1907    1128     190
CTETRA      5332       1    2024    1084    2034    1106
CTETRA      5333       1    1631     954     709     710
CTETRA      5334       1    2841    2842    1107    1084
CTETRA      5335       1    2841    1084    1107     879
CTETRA      5336       1    1173     511    1174     917
CTETRA      5337       1    1107     264     862     266
CTETRA      5338       1    1107     596     264     879
CTETRA      5339       1    2906    2908    1107     264
CTETRA      5340       1    2906     264    1107     266
CTETRA      5341       1    4292    3479    1679    1544
CTETRA      5342       1    1637    1640    1638     580
CTETRA      5343       1    1691    1707    1706     597
CTETRA      5344       1    1691    1535    1532     597
CTETRA      5345       1    1912     227    1586     171
CTETRA      5346       1    3455    1572    1571     291
CTETRA      5347       1    1676    1677     543     293
CTETRA      5348       1    3388    1515    1507     492
CTETRA      5349       1    4155    1442    1334    3307
CTETRA      5350       1    3470    1586     227     171
CTETRA      5351       1    3515    1805    1804     291
CTETRA      5352       1    3471      43    1587     171
CTETRA      5353       1     555     626     630      49
CTETRA      5354       1    1057     726     537    1004
CTETRA      5355       1    1874    1057    1875     174
CTETRA      5356       1    1028     448     450     451
CTETRA      5357       1    1295     570     851     618
CTETRA      5358       1    4154    1334    1348    3306
CTETRA      5359       1    1805    1806    1821     291
CTETRA      5360       1    1838     724     395     195
CTETRA      5361       1    1841    1857    1856     287
CTETRA      5362       1    2881    1085    2883     303
CTETRA      5363       1    3399    4288    3445    3539
CTETRA      5364       1    2581    1126    2582     303
CTETRA      5365       1    3405    1510    1509     437
CTETRA      5366       1    2877     302     764     297
CTETRA      5367       1    3399     901    3400     156
CTETRA      5368       1    3459     629     593     588
CTETRA      5369       1    2880    2884    2887     298
CTETRA      5370       1    2883     303    1085     619
CTETRA      5371       1     404     401     411     402
CTETRA      5372       1    1333    1343    1334     782
CTETRA      5373       1    1607     559      52     401
CTETRA      5374       1    1875    1891    1890     792
CTETRA      5375       1    3602     797      52     838
CTETRA      5376       1    1517     925     715     140
CTETRA      5377       1    3604      57    1612     839
CTETRA      5378       1    3161    3162     659     869
CTETRA      5379       1    3158    3161     659     869
CTETRA      5380       1    3398    3540    3539    1645
CTETRA      5381       1     723     628     627      73
CTETRA      5382       1    3086    1036    3163     869
CTETRA      5383       1    3086     869    3087    1033
CTETRA      5384       1    1872    1873    1888     654
CTETRA      5385       1     865     869     662     663
CTETRA      5386       1    3686    3687    1829     751
CTETRA      5387       1    3461    1573    1578    1065
CTETRA      5388       1    3461    1578     914    1065
CTETRA      5389       1     436     629     920     588
CTETRA      5390       1      23      64      17      65
CTETRA      5391       1    3688    1577     525     530
CTETRA      5392       1    3577    2150    4115     980
CTETRA      5393       1    3406     555    1511     630
CTETRA      5394       1    1944    1145    1130     992
CTETRA      5395       1    1833    1834    1849     384
CTETRA      5396       1    1659    1005     111     788
CTETRA      5397       1    2694     992    2810    1146
CTETRA      5398       1     873     549      29      25
CTETRA      5399       1    1145     992     991    1146
CTETRA      5400       1    1830     372     547     374
CTETRA      5401       1    2810     992    1130    1146
CTETRA      5402       1    1649    1650    1654     934
CTETRA      5403       1    2396    2405     871     328
CTETRA      5404       1    3380    3381    1531    1086
CTETRA      5405       1    1844    1845    1860     542
CTETRA      5406       1    1660    1086     379     260
CTETRA      5407       1    3146     600     799     871
CTETRA      5408       1     798     799     871     328
CTETRA      5409       1     369     383     821     749
CTETRA      5410       1    3377    1526     545     546
CTETRA      5411       1     870     798     600     871
CTETRA      5412       1    2405     798     871     328
CTETRA      5413       1     752     766     753     670
CTETRA      5414       1    2293    2304     889     130
CTETRA      5415       1    3569    1667    3629     982
CTETRA      5416       1    2346     753    2362     670
CTETRA      5417       1    3569    3627    3570    1669
CTETRA      5418       1    1061    1020     293     294
CTETRA      5419       1    2362     753     766     670
CTETRA      5420       1     721     131     130     132
CTETRA      5421       1    3632     749    1663     113
CTETRA      5422       1    1864    1865    1880    1058
CTETRA      5423       1    2346     670    2347     359
CTETRA      5424       1     103     201     101     108
CTETRA      5425       1    3477     791    2279     739
CTETRA      5426       1    1883    1884    1899      60
CTETRA      5427       1    3654    3655    2291      18
CTETRA      5428       1    3632    3633    2295     112
CTETRA      5429       1     368    1086     260     375
CTETRA      5430       1     520     571     631     107
CTETRA      5431       1     572     573     786     118
CTETRA      5432       1    2618     572     103     105
CTETRA      5433       1    3821    2506    2505     534
CTETRA      5434       1    3470    2299    2298     227
CTETRA      5435       1    3656    3657    2280      21
CTETRA      5436       1     572     550     786     573
CTETRA      5437       1     786     573     221     118
CTETRA      5438       1    2618     103    2620     105
CTETRA      5439       1    3832     103     572     201
CTETRA      5440       1    3467    3468    1594    1027
CTETRA      5441       1    3657    3658    2300     981
CTETRA      5442       1    3562    3639    1655    1051
CTETRA      5443       1    3684    1873    1858     582
CTETRA      5444       1     105     107     882     573
CTETRA      5445       1     520     631     882     107
CTETRA      5446       1     103     108     104     106
CTETRA      5447       1     519     524     523     106
CTETRA      5448       1    3654    2291    2290     431
CTETRA      5449       1    1868    1884    1883      13
CTETRA      5450       1    1912    1586     227     225
CTETRA      5451       1    3395    3396    1516     715
CTETRA      5452       1    3213     687     692     848
CTETRA      5453       1    3821     393    3822     534
CTETRA      5454       1    1057     174     542     726
CTETRA      5455       1    4224    1260    1255    3031
CTETRA      5456       1    3627    3628    2293     982
CTETRA      5457       1    3579      53      28      48
CTETRA      5458       1     544     546     545     373
CTETRA      5459       1    3449    4290    1521     525
CTETRA      5460       1    3237     566    3264     644
CTETRA      5461       1    2499    2525     690     642
CTETRA      5462       1    2522     687     691     848
CTETRA      5463       1     690     848     973     642
CTETRA      5464       1    2522     841    2525     848
CTETRA      5465       1     691     687     892     848
CTETRA      5466       1    2001    2670    2685     816
CTETRA      5467       1    2670    2686    2685     816
CTETRA      5468       1    2003     815     812     376
CTETRA      5469       1    3467    1594    1595     126
CTETRA      5470       1    3375    1654    3376     545
CTETRA      5471       1    3576    1646    3659     981
CTETRA      5472       1    2004    2685    2683     812
CTETRA      5473       1    3840    3841    2149    2504
CTETRA      5474       1    3509    1799    1574    1575
CTETRA      5475       1    3520    3521    1811    1578
CTETRA      5476       1    1780     636    1795     640
CTETRA      5477       1    1800    1816    1815     377
CTETRA      5478       1    1766    1780     648     417
CTETRA      5479       1    3517    1808    1807    1570
CTETRA      5480       1    1832    1848    1847     930
CTETRA      5481       1    1183    1230    1184     770
CTETRA      5482       1    1832    1833    1848     930
CTETRA      5483       1     648      89     254     636
CTETRA      5484       1    3380    1531     379    1086
CTETRA      5485       1     253     254     648     649
CTETRA      5486       1    3575    3659    1646     442
CTETRA      5487       1     253     648     729     242
CTETRA      5488       1    3448    4289    3657    3658
CTETRA      5489       1    1765     249    1766     648
CTETRA      5490       1    3468    2291    2280     226
CTETRA      5491       1    1862    1863    1878     412
CTETRA      5492       1      60     522     226     232
CTETRA      5493       1    1899     126    1915     232
CTETRA      5494       1    1898    1899    1914     232
CTETRA      5495       1    4109    2131    3231    3232
CTETRA      5496       1     648     254     729     636
CTETRA      5497       1    3406    3820    3407     392
CTETRA      5498       1    2701    2718    2710     503
CTETRA      5499       1    3528    1913    1914    1581
CTETRA      5500       1    1817    1818    1833     931
CTETRA      5501       1    2864     832    2865     619
CTETRA      5502       1    2075     613     342    1055
CTETRA      5503       1    2868    2870     832     823
CTETRA      5504       1     349     832     831     342
CTETRA      5505       1     831     613    1006     619
CTETRA      5506       1     832     831    1006     619
CTETRA      5507       1    1221    1225    1222    1010
CTETRA      5508       1     832    1006     831     342
CTETRA      5509       1    2075     613    1006     342
CTETRA      5510       1    2073    1006    2875     342
CTETRA      5511       1    3398    1645    3399     901
CTETRA      5512       1    2865     832    2869    1006
CTETRA      5513       1    2869     832    2870    1006
CTETRA      5514       1    3456    1513    1517     181
CTETRA      5515       1     715     154     157     140
CTETRA      5516       1    2499     690     970     642
CTETRA      5517       1     641     794     566     644
CTETRA      5518       1    3459     629    3460     593
CTETRA      5519       1    2500     970     690     422
CTETRA      5520       1     829     496     931     830
CTETRA      5521       1    1807    1570     195     157
CTETRA      5522       1    3235     973     971     424
CTETRA      5523       1    1848    1863     383     385
CTETRA      5524       1    1387     419    3242     423
CTETRA      5525       1    1009     973     690     848
CTETRA      5526       1    3235    3236     971     973
CTETRA      5527       1    3910    3911    1932    2802
CTETRA      5528       1    1936    1942    1941     949
CTETRA      5529       1    3238    3240    1009     973
CTETRA      5530       1    1936    2795    2806     772
CTETRA      5531       1    3312    3328     633     785
CTETRA      5532       1    2783    2790    2784     191
CTETRA      5533       1     783    1066     984     944
CTETRA      5534       1    3296     762    3326     984
CTETRA      5535       1    1179    1180     875     876
CTETRA      5536       1    3012    3014    3018     876
CTETRA      5537       1    1930    2795    1936     773
CTETRA      5538       1    2122    3262    3216     566
CTETRA      5539       1    3021    3022    3065     502
CTETRA      5540       1     641     903     566     908
CTETRA      5541       1    4197    1193    1179    3014
CTETRA      5542       1    1935    1936    1941     773
CTETRA      5543       1    2122     566    2124     908
CTETRA      5544       1    2122     794    3262     566
CTETRA      5545       1     957     706     358     577
CTETRA      5546       1    2180    2181    2182     189
CTETRA      5547       1     394     427     887     535
CTETRA      5548       1    1628    1629    1630     585
CTETRA      5549       1    3651     873    4123     425
CTETRA      5550       1    3651     873     425     778
CTETRA      5551       1    3912    3913    1936    2806
CTETRA      5552       1    1960    1961    1962     688
CTETRA      5553       1    2966    2979    2980     620
CTETRA      5554       1    1748    1749    1764      87
CTETRA      5555       1    3649     873    3650     778
CTETRA      5556       1    2698    2699    2743     893
CTETRA      5557       1    3741    3742    1200    2801
CTETRA      5558       1    1204    1205    1215      39
CTETRA      5559       1    2150    2827     980     330
CTETRA      5560       1    1925    1959    2990    1125
CTETRA      5561       1    2717      34      40      42
CTETRA      5562       1    2741     790     624    1093
CTETRA      5563       1    1927    1962    1961     688
CTETRA      5564       1    3384    3385    1529     262
CTETRA      5565       1    3050    3057    3060      42
CTETRA      5566       1    4199    1192    1193    3015
CTETRA      5567       1    3649     873     269      25
CTETRA      5568       1    1764      89    1779      84
CTETRA      5569       1    3584     142     222     360
CTETRA      5570       1    1602    1606     142      80
CTETRA      5571       1    1602      80     142      68
CTETRA      5572       1    3584    3585     222     151
CTETRA      5573       1    1965    1970    1969     210
CTETRA      5574       1    4265    1603    1605     151
CTETRA      5575       1    3729    3730    1221    2710
CTETRA      5576       1    4259     355     128     143
CTETRA      5577       1    1108     658     656    1093
CTETRA      5578       1    2741     616     624     790
CTETRA      5579       1     355     142      80     148
CTETRA      5580       1    1969    3068    3053     210
CTETRA      5581       1    4258    1606     355     142
CTETRA      5582       1    4028    3053    1969    3068
CTETRA      5583       1    2704    2705    2714     688
CTETRA      5584       1    4028    1969    1975    3068
CTETRA      5585       1    2698    2743    2748     893
CTETRA      5586       1    4257     142    4258     143
CTETRA      5587       1     142      76     360     148
CTETRA      5588       1    1599     166    1087     959
CTETRA      5589       1    1709     208     929     136
CTETRA      5590       1    1747    1748    1763      83
CTETRA      5591       1    3728    3729    1226    2702
CTETRA      5592       1    3384    1529    1528     986
CTETRA      5593       1    1724     929     255     163
CTETRA      5594       1    1710     158     255     256
CTETRA      5595       1    1831    1832    1847     930
CTETRA      5596       1    1976    1983    1980     615
CTETRA      5597       1    1988    1995    1989     518
CTETRA      5598       1     168     938     960     932
CTETRA      5599       1    1709     255     929     208
CTETRA      5600       1    1986    2736    2573     998
CTETRA      5601       1    1625    1627    1626      91
CTETRA      5602       1    1732    1748    1747     578
CTETRA      5603       1    1725     158     159     255
CTETRA      5604       1    3653     403    4120     309
CTETRA      5605       1    3929    1985    1977    2734
CTETRA      5606       1    3651     425     403     426
CTETRA      5607       1    4121     403    4122     429
CTETRA      5608       1     688     196     209      42
CTETRA      5609       1     446     730     735    1092
CTETRA      5610       1    2711    2712    2717      42
CTETRA      5611       1    3333     202    1609     400
CTETRA      5612       1     403     426     425     312
CTETRA      5613       1    1650    1051    1655     934
CTETRA      5614       1    3644    1653     459     454
CTETRA      5615       1      63      73      17      65
CTETRA      5616       1     425     427     429     312
CTETRA      5617       1    4122     403     425     429
CTETRA      5618       1    4120     309     403     307
CTETRA      5619       1    1990    1996    1998    1012
CTETRA      5620       1    1659     789    1005     788
CTETRA      5621       1    4027    1975    1980    3019
CTETRA      5622       1    2995    1141    3002     795
CTETRA      5623       1    2752     961    1076    1045
CTETRA      5624       1    2005    2006    2008     376
CTETRA      5625       1    3944    2013    2010    2689
CTETRA      5626       1    4018    4019    1996    2852
CTETRA      5627       1    2751    2752    1076    1045
CTETRA      5628       1    1028     207    1096     450
CTETRA      5629       1     961    1141    1076    1045
CTETRA      5630       1    2010    2689    2013     933
CTETRA      5631       1    2018    2019    2021     708
CTETRA      5632       1     777     776    1141    1076
CTETRA      5633       1    3560    3643    3561    1652
CTETRA      5634       1     996     673     877    1045
CTETRA      5635       1     876     877     673    1045
CTETRA      5636       1    2992     673    3001    1045
CTETRA      5637       1    1245     563    1252     567
CTETRA      5638       1    1248    1250    1251     568
CTETRA      5639       1    2930    1118    1143    1117
CTETRA      5640       1    1249    1252    2634     567
CTETRA      5641       1    1245     563     567     561
CTETRA      5642       1    2629    2649    2635     567
CTETRA      5643       1    1262    1275    1272    1124
CTETRA      5644       1    2630    2635    2641     563
CTETRA      5645       1    2634    2641    2635     563
CTETRA      5646       1    4012    4013    2008    2957
CTETRA      5647       1    2917    2918    2924     608
CTETRA      5648       1     613     884    1006     619
CTETRA      5649       1    2865    1006    2866     884
CTETRA      5650       1    2001    2003     816     815
CTETRA      5651       1    2575    2586    2576     822
CTETRA      5652       1    4002    4003    2056    2858
CTETRA      5653       1    1245    1252    1251     567
CTETRA      5654       1    2897    1071     764    1049
CTETRA      5655       1    2897     764    2900    1049
CTETRA      5656       1    2036    2037    2042     897
CTETRA      5657       1    1314    2885     297     298
CTETRA      5658       1    3711    1249    1252    2634
CTETRA      5659       1     829     931     496     987
CTETRA      5660       1     761     764     302     297
CTETRA      5661       1    2036    2037     897     713
CTETRA      5662       1    2941    2943    2942     562
CTETRA      5663       1    2036    2042    2041    1117
CTETRA      5664       1    2877    2878     764     302
CTETRA      5665       1    4232    1250    1247    2945
CTETRA      5666       1    2878     764     302    1049
CTETRA      5667       1    2248    1133    2250     755
CTETRA      5668       1    3176     752    3177     757
CTETRA      5669       1    2345    2363     754     755
CTETRA      5670       1    4197    3014    1179    3018
CTETRA      5671       1    4181    4182    1452    3194
CTETRA      5672       1    1249     567    2650     568
CTETRA      5673       1    2345    2346     890     753
CTETRA      5674       1     752     754     753     766
CTETRA      5675       1    1688     243    1534     248
CTETRA      5676       1    3451    1528    3452     378
CTETRA      5677       1    1688     247     243     248
CTETRA      5678       1    1688    1704     247     248
CTETRA      5679       1    1249    1251    1252     567
CTETRA      5680       1    3425    1534     246     248
CTETRA      5681       1    1689    1534    1536     248
CTETRA      5682       1    3489    1689    1534    1536
CTETRA      5683       1    3341     323     860     467
CTETRA      5684       1    1298     851    1301     618
CTETRA      5685       1    1696    1697     256     258
CTETRA      5686       1     418     455       8     286
CTETRA      5687       1    3339     323     467     324
CTETRA      5688       1    3949    2037    2031    2662
CTETRA      5689       1    1160     164     324     928
CTETRA      5690       1    2067    2070    2068     884
CTETRA      5691       1    1817    1833    1832     931
CTETRA      5692       1    2660    2662    2665     897
CTETRA      5693       1    3511    1801    1564    1567
CTETRA      5694       1    2033    2034     879    1106
CTETRA      5695       1    1299    2921     851     853
CTETRA      5696       1    2870    2873    2875     342
CTETRA      5697       1    1301    1305     303     851
CTETRA      5698       1    2858    2926    2935    1116
CTETRA      5699       1    1113     712    1143     897
CTETRA      5700       1    2020    2932    2933    1053
CTETRA      5701       1    2073    2076    2075     342
CTETRA      5702       1    1305    2882    2880     303
CTETRA      5703       1    2864    2883    1085     619
CTETRA      5704       1    1295    1296    1299     853
CTETRA      5705       1    3951    3952    2049    2667
CTETRA      5706       1     832    1085    1081     619
CTETRA      5707       1    2862     834    1085     851
CTETRA      5708       1    2050    2051    2056    1116
CTETRA      5709       1     834    1085     617    1081
CTETRA      5710       1     834     832    1085    1081
CTETRA      5711       1    2580    2599    2597     613
CTETRA      5712       1    2056    2062    2874     343
CTETRA      5713       1    4002    2858    2056    2874
CTETRA      5714       1    2463    2464    1030     698
CTETRA      5715       1    2464    2466    1030     698
CTETRA      5716       1    2048    2049    2051     339
CTETRA      5717       1    1441    1030     698    1032
CTETRA      5718       1     521       9     296     523
CTETRA      5719       1    1327    1056    1329     779
CTETRA      5720       1    2059    2067    2603     270
CTETRA      5721       1    3949    3950    2037    2662
CTETRA      5722       1    2058    2064    2063    1055
CTETRA      5723       1     323     347     860     296
CTETRA      5724       1     348     104     296     523
CTETRA      5725       1    2028       5     322      98
CTETRA      5726       1     158     256     416       1
CTETRA      5727       1    1041     672     673    1102
CTETRA      5728       1    1303    2583    2588     303
CTETRA      5729       1    2594    1049     270     346
CTETRA      5730       1    1041     674     673     877
CTETRA      5731       1    2059    2070    2067     270
CTETRA      5732       1     996     194     188     673
CTETRA      5733       1    2060    2061    2071     270
CTETRA      5734       1    2881    2883    2884     303
CTETRA      5735       1    2847     994    3001     194
CTETRA      5736       1    2051     343    2056    1116
CTETRA      5737       1    2847    3001    2848     194
CTETRA      5738       1     995     674     188     673
CTETRA      5739       1    2848     995     194     673
CTETRA      5740       1    1819     291     178     498
CTETRA      5741       1    2340     866     472    1070
CTETRA      5742       1    1089    1030    1031     464
CTETRA      5743       1    3141    3145    3144     410
CTETRA      5744       1    1517     181     925     140
CTETRA      5745       1     179     181     140     716
CTETRA      5746       1     560     942     734     838
CTETRA      5747       1    2091    2098    2095     229
CTETRA      5748       1     153     177     179    1020
CTETRA      5749       1    1820    1821     179     291
CTETRA      5750       1    3170    3175    3171    1134
CTETRA      5751       1    4086    2090    2077    3291
CTETRA      5752       1    1685    1701    1700     117
CTETRA      5753       1    1821     154    1836     179
CTETRA      5754       1    1835    1836     153     179
CTETRA      5755       1    1835     153     177     179
CTETRA      5756       1    3403     273    3825     723
CTETRA      5757       1    2167     145     261     146
CTETRA      5758       1    2091    2093    2092     234
CTETRA      5759       1     273     352     274     277
CTETRA      5760       1    3401     273    3402     627
CTETRA      5761       1    4092    2099    2101    3317
CTETRA      5762       1    2077    2159    2158     219
CTETRA      5763       1    3290    3292    3291     197
CTETRA      5764       1    1702     244    1717     115
CTETRA      5765       1    4090    2102    3265    3316
CTETRA      5766       1    1030     974    1031     464
CTETRA      5767       1    3825     723     273     274
CTETRA      5768       1    3401     273     627    1008
CTETRA      5769       1    2161    2162    2172     900
CTETRA      5770       1    4089    2102    2089    3265
CTETRA      5771       1    2109    2114    2113     460
CTETRA      5772       1    4209    4210    1215    3048
CTETRA      5773       1    3215    3216     566     316
CTETRA      5774       1    2080    2081    2113     664
CTETRA      5775       1    2080    2084    2081     664
CTETRA      5776       1    2143    2146    2145     329
CTETRA      5777       1    2530    2542    2531     609
CTETRA      5778       1    3246    3255    3251     793
CTETRA      5779       1    1148     902     351     316
CTETRA      5780       1    1340    1341    3298     763
CTETRA      5781       1    2547    2556     641     903
CTETRA      5782       1    3799    1337    1342    2530
CTETRA      5783       1    2547     641    2553     903
CTETRA      5784       1    2548    2553    2552     903
CTETRA      5785       1    2553     903     641     908
CTETRA      5786       1    2531    2541    2532     609
CTETRA      5787       1    2082    3210    3252     885
CTETRA      5788       1    2106     885    3250     462
CTETRA      5789       1    2127     351     566     316
CTETRA      5790       1    2469    2482    2483     252
CTETRA      5791       1    2124     566     903     908
CTETRA      5792       1    2086     252    2481     587
CTETRA      5793       1    2116     794    2117     908
CTETRA      5794       1    2627    2643    1124     855
CTETRA      5795       1    2140    2143    2142     329
CTETRA      5796       1    1274    2644    2646     855
CTETRA      5797       1    2643    2644    1124     855
CTETRA      5798       1     414     159     158     182
CTETRA      5799       1    1740     499    1755     184
CTETRA      5800       1    2546    2549     641     796
CTETRA      5801       1    2118    2550    2535     796
CTETRA      5802       1    1740     159     499     184
CTETRA      5803       1    3687    1814    1829     751
CTETRA      5804       1    1087       7       6     176
CTETRA      5805       1    1439    3277    3275    1069
CTETRA      5806       1    3410    3411    1525     575
CTETRA      5807       1    2547    2549    2553     641
CTETRA      5808       1    3848    2123    2126    2553
CTETRA      5809       1    2120    2549    2550     796
CTETRA      5810       1    4104    2117    3245    3262
CTETRA      5811       1    1276    2638    1284     601
CTETRA      5812       1    1740     159     940     163
CTETRA      5813       1    1725     255     159     163
CTETRA      5814       1    1725     158    1740     159
CTETRA      5815       1     166     163     162     160
CTETRA      5816       1    3810    2520    2527     843
CTETRA      5817       1    3261    3264     794     644
CTETRA      5818       1    2306     432    2823    1007
CTETRA      5819       1     434     691    1099    1007
CTETRA      5820       1     274     350     432     278
CTETRA      5821       1    3367    1617     514     512
CTETRA      5822       1    1841    1842     287     888
CTETRA      5823       1    3407    3819    3408     392
CTETRA      5824       1    1400    1401    1403    1007
CTETRA      5825       1    2016     933    2690     708
CTETRA      5826       1    3846    2129    2551    2552
CTETRA      5827       1    2937     936     415     569
CTETRA      5828       1    2682    2687     935     933
CTETRA      5829       1    2626     854    2647     855
CTETRA      5830       1    2654    2690     933     708
CTETRA      5831       1    1845     542     372     537
CTETRA      5832       1    2139    2140    2142     702
CTETRA      5833       1    3213    3238    3239    1009
CTETRA      5834       1    2653     711    2654     933
CTETRA      5835       1    3237    3238     902     642
CTETRA      5836       1     689     902     692     848
CTETRA      5837       1    3562    3640    3639    1051
CTETRA      5838       1    3413    3414    1522     458
CTETRA      5839       1     655    1062     727     527
CTETRA      5840       1    2792    1076     488     795
CTETRA      5841       1    2500     690    2524     969
CTETRA      5842       1    1009     843     690     423
CTETRA      5843       1     690     973     969     422
CTETRA      5844       1    2505    2519    2516     887
CTETRA      5845       1    3579    2147    2151     494
CTETRA      5846       1    2520     690     843     969
CTETRA      5847       1    3374    3554    1649     457
CTETRA      5848       1    3461    1506    3462     966
CTETRA      5849       1    3717    1264    1274    2646
CTETRA      5850       1    2516     887    2519    1019
CTETRA      5851       1    3810    1386    1383     843
CTETRA      5852       1    1389    2527     842     843
CTETRA      5853       1    2521     841    2527     843
CTETRA      5854       1    3810    2527    1386     843
CTETRA      5855       1    2520     690    2521     843
CTETRA      5856       1    2656     712     711     878
CTETRA      5857       1    3272    3273    3280    1090
CTETRA      5858       1    4088    4089    2089    3292
CTETRA      5859       1    4162    4163    1469    3276
CTETRA      5860       1    2657     712     878     927
CTETRA      5861       1    2632     878     926     927
CTETRA      5862       1    2658    1113     712     927
CTETRA      5863       1    2658    1113    2665     712
CTETRA      5864       1    3869    2167    2166    2457
CTETRA      5865       1    3279    3280    3282    1123
CTETRA      5866       1    2457    2459    2458     145
CTETRA      5867       1    3485    1685    1538    1539
CTETRA      5868       1    1113    1143     712     927
CTETRA      5869       1    2366     317     479     320
CTETRA      5870       1     319     483     299     321
CTETRA      5871       1    2366    2371    2373     320
CTETRA      5872       1     319     317     318     483
CTETRA      5873       1     761     764    1071    1049
CTETRA      5874       1    1928    1933    1931     777
CTETRA      5875       1    4045    4046    1933    2999
CTETRA      5876       1    4171    1505    3148    3149
CTETRA      5877       1    2896    2901     764    1014
CTETRA      5878       1    2604     761    1071    1049
CTETRA      5879       1    2850    2851    3098    1044
CTETRA      5880       1    2220    3182     867     817
CTETRA      5881       1    2604    1071    2617    1049
CTETRA      5882       1     862     265    1016    1014
CTETRA      5883       1    2612    2613    1016    1071
CTETRA      5884       1    3162     799     659     328
CTETRA      5885       1      19     352     881     277
CTETRA      5886       1     724     195     920     898
CTETRA      5887       1    3105    3108    1111     807
CTETRA      5888       1     995     188     194     673
CTETRA      5889       1     156     281     157     898
CTETRA      5890       1     920     281     195     588
CTETRA      5891       1    4191    1419    1425     675
CTETRA      5892       1    3459     281     629     588
CTETRA      5893       1    2188    2193    2763     804
CTETRA      5894       1    2327    2379    2328    1115
CTETRA      5895       1    1921     194     193     189
CTETRA      5896       1    2177    2188    2191     803
CTETRA      5897       1     281     195     157     898
CTETRA      5898       1     920      15     629     305
CTETRA      5899       1     901      16     881     898
CTETRA      5900       1     936     933     415     569
CTETRA      5901       1    1249    2634    2650     567
CTETRA      5902       1    1492    2412    2407     870
CTETRA      5903       1    3148     600    3149     595
CTETRA      5904       1    1491    1502    1501     473
CTETRA      5905       1    2912     878    2913     565
CTETRA      5906       1    2199    2200    2205     781
CTETRA      5907       1    2943     564     561     562
CTETRA      5908       1     605     926     564     878
CTETRA      5909       1    3124    3125    3134     650
CTETRA      5910       1    4055    3109    3094     806
CTETRA      5911       1    4056    4057    2201    3124
CTETRA      5912       1    4057    2207    2201    3124
CTETRA      5913       1     605     564     926     604
CTETRA      5914       1    2200    2201    2206     652
CTETRA      5915       1    2361     670     766     538
CTETRA      5916       1     563     604     564     561
CTETRA      5917       1     164     324     928     161
CTETRA      5918       1    2212    2213    2218     988
CTETRA      5919       1    4055    4056    2195    3094
CTETRA      5920       1    2178    1111    3108     804
CTETRA      5921       1    3125    3131    3134     650
CTETRA      5922       1    1679     939    1694     134
CTETRA      5923       1    1694    1695     208     939
CTETRA      5924       1    3128     872     638    1038
CTETRA      5925       1    3123    3134    3135     651
CTETRA      5926       1     164     161     208     165
CTETRA      5927       1    4057    4058    2207    3123
CTETRA      5928       1    2366    2367    2374     317
CTETRA      5929       1    1709    1710     255     208
CTETRA      5930       1    1545     928     939     134
CTETRA      5931       1    3143    3144    3166     802
CTETRA      5932       1    1679    1545    1680     939
CTETRA      5933       1    3872    2169    2168    2455
CTETRA      5934       1    3140    3145     867     871
CTETRA      5935       1    1025      58     724      16
CTETRA      5936       1    1458    3191     299     301
CTETRA      5937       1    2079    2491    2492     200
CTETRA      5938       1    2208    2215     867     410
CTETRA      5939       1    2198    2431    2430     801
CTETRA      5940       1    3279    1121    3280    1123
CTETRA      5941       1    2215    2221     867    1129
CTETRA      5942       1    3143    3144     802     410
CTETRA      5943       1    4066    2230    2229    3179
CTETRA      5944       1    2208     867    3142     410
CTETRA      5945       1    4067    4068    2231    3180
CTETRA      5946       1    2214    3183    3142     867
CTETRA      5947       1    1697     743     466     461
CTETRA      5948       1     466     743     468     461
CTETRA      5949       1    2358    2359    2361     666
CTETRA      5950       1    1466    2350    1472     538
CTETRA      5951       1     101     466     468     259
CTETRA      5952       1    3343     101      99     468
CTETRA      5953       1    3131    3132    3134     651
CTETRA      5954       1    3343      99    1163     468
CTETRA      5955       1    3419    1546     468    1094
CTETRA      5956       1    1163     468      99    1094
CTETRA      5957       1    3419     468    1163    1094
CTETRA      5958       1    3171     469     756     766
CTETRA      5959       1     472     469     666    1070
CTETRA      5960       1    2225    3122    3121     612
CTETRA      5961       1    4160    3275    1439    3277
CTETRA      5962       1     752     756     754     766
CTETRA      5963       1    1466    2351    2350     538
CTETRA      5964       1     472     540     666     469
CTETRA      5965       1     540     671     666     766
CTETRA      5966       1    3893    3894    2244    2384
CTETRA      5967       1    3190     301    3204     671
CTETRA      5968       1     300     670     301     359
CTETRA      5969       1    4065    2229    3178    3179
CTETRA      5970       1    3130     318     319     478
CTETRA      5971       1    3192     301     670     359
CTETRA      5972       1    3089    3090    3173    1114
CTETRA      5973       1     780     480    1037    1038
CTETRA      5974       1    3189     301    3190     671
CTETRA      5975       1    3197    3201     540     671
CTETRA      5976       1    1466    1472     665     538
CTETRA      5977       1     709     577     583      92
CTETRA      5978       1    2347    2360     300     538
CTETRA      5979       1    1761    1762    1777     997
CTETRA      5980       1    2607     761     302     304
CTETRA      5981       1    1630    1636    1631     710
CTETRA      5982       1    1629    1636    1630     585
CTETRA      5983       1    3197     671     540     766
CTETRA      5984       1    2752    2766     961     877
CTETRA      5985       1    1181    2774    1415     924
CTETRA      5986       1    3609    3610    2260     253
CTETRA      5987       1    2773    2777     963    1041
CTETRA      5988       1    1180     962    1414    1040
CTETRA      5989       1    1624    1626      97      91
CTETRA      5990       1    2773    2782    2779     963
CTETRA      5991       1    1181    2782    2774     924
CTETRA      5992       1    1683    1699    1698     743
CTETRA      5993       1    4271    3616    4272    1626
CTETRA      5994       1     788     537     726    1004
CTETRA      5995       1     912     537     821    1004
CTETRA      5996       1     541     537     725     380
CTETRA      5997       1    1658     379     544     380
CTETRA      5998       1    2948    2960     936     937
CTETRA      5999       1    1748    1763      83      87
CTETRA      6000       1    1777    1792     705    1138
CTETRA      6001       1    2955     937    2956     376
CTETRA      6002       1    2006     812     937     376
CTETRA      6003       1    2011     936    2957     937
CTETRA      6004       1    3432    2255    2260     729
CTETRA      6005       1    2008    2957    2955     937
CTETRA      6006       1    2009     936    2011     937
CTETRA      6007       1    2962     376     814     518
CTETRA      6008       1    2009     935     936     937
CTETRA      6009       1    3673    4293    1558    1561
CTETRA      6010       1    1724    1740     940     163
CTETRA      6011       1    1720    1736    1735      36
CTETRA      6012       1    2521     690     841     843
CTETRA      6013       1     689     902     848     642
CTETRA      6014       1     841    1009     690     848
CTETRA      6015       1    2521    2525     841     690
CTETRA      6016       1    2499    2500     970     690
CTETRA      6017       1    3430    1559    1558     810
CTETRA      6018       1    1692    1693    1708     314
CTETRA      6019       1    3602    2263    2264     797
CTETRA      6020       1    2294    2297     361     719
CTETRA      6021       1    3629     361    2297     983
CTETRA      6022       1    3430    2263    2265     797
CTETRA      6023       1    3482    1683    1682    1546
CTETRA      6024       1     412     382     819     413
CTETRA      6025       1     930     383     369     985
CTETRA      6026       1    2265      57     839    1059
CTETRA      6027       1     791     792     739    1017
CTETRA      6028       1    1580     911     791    1017
CTETRA      6029       1    3632     112     749     113
CTETRA      6030       1    2296     111     791     718
CTETRA      6031       1     820     791     718     911
CTETRA      6032       1    2279    1005     789     791
CTETRA      6033       1    3579     557    2147      53
CTETRA      6034       1     873     425     778     857
CTETRA      6035       1    3716    1274    2644    2646
CTETRA      6036       1    4282    1598    1596     175
CTETRA      6037       1    1740    1756    1755     499
CTETRA      6038       1    2024    2027    2025     852
CTETRA      6039       1    3597    2273     704     175
CTETRA      6040       1    2148     330    2150     494
CTETRA      6041       1     555     750      49      50
CTETRA      6042       1     534     824     429     313
CTETRA      6043       1    4123     425     873     548
CTETRA      6044       1    2827     980     330     549
CTETRA      6045       1    1204    1211     490      34
CTETRA      6046       1    2816    2817     771     623
CTETRA      6047       1     789     728     739     726
CTETRA      6048       1    3682    1888    3683     449
CTETRA      6049       1    3587    3671    3588     554
CTETRA      6050       1    3562    3639    3563    1655
CTETRA      6051       1    1211    2814    2813    2819
CTETRA      6052       1    3478     739    2285    1096
CTETRA      6053       1    3755    1427    1421    2331
CTETRA      6054       1    3478    4291    1590    1096
CTETRA      6055       1    2816     771     490     623
CTETRA      6056       1    3477    2286    2285     739
CTETRA      6057       1    2693     490    2818      34
CTETRA      6058       1    1410    1414    1411     924
CTETRA      6059       1    3563    1655    3639     728
CTETRA      6060       1    2814    2818     490      34
CTETRA      6061       1    3639    1655    1051     728
CTETRA      6062       1    2814    2815    2818      34
CTETRA      6063       1    2649    2652    2651    1124
CTETRA      6064       1     855     341     507     508
CTETRA      6065       1    2105    2108    3255     793
CTETRA      6066       1     517     507     855     341
CTETRA      6067       1    3982    3354    1635     904
CTETRA      6068       1    1272    1124    1273     855
CTETRA      6069       1    1899    1915    1914     232
CTETRA      6070       1    1124     508     856     569
CTETRA      6071       1    2627    1124    2628     508
CTETRA      6072       1    2604     761    2613    1071
CTETRA      6073       1    2604    2607     761     302
CTETRA      6074       1    1314    2885    2886     297
CTETRA      6075       1    1319    1011     761     297
CTETRA      6076       1    3113     318    3128     638
CTETRA      6077       1    3011     875    3018    1040
CTETRA      6078       1      19     901     899      16
CTETRA      6079       1      58     722     724      16
CTETRA      6080       1    3010    3016    3017    1040
CTETRA      6081       1    4261     164    3337     959
CTETRA      6082       1    3659    2299     981     442
CTETRA      6083       1    3446    1648      19     901
CTETRA      6084       1    1710     158    1725     255
CTETRA      6085       1    1410    1413    1414    1040
CTETRA      6086       1    3626    1671    1669     889
CTETRA      6087       1    1881    1882    1897     441
CTETRA      6088       1      58      12     635      22
CTETRA      6089       1    3448    3657    4116      21
CTETRA      6090       1     156     881    1008     898
CTETRA      6091       1      54      58    1025      14
CTETRA      6092       1    3448      21      23      22
CTETRA      6093       1     403     429     307     313
CTETRA      6094       1     605     926     878     927
CTETRA      6095       1    1282     602     604     603
CTETRA      6096       1    3389    3545    3390     492
CTETRA      6097       1    1283    2636    2640     602
CTETRA      6098       1     467     257     256     259
CTETRA      6099       1    1281     604    1282     602
CTETRA      6100       1    1002     722     634     923
CTETRA      6101       1    2028     322       5     852
CTETRA      6102       1    3476     718     791     911
CTETRA      6103       1    3469    2299    3470     227
CTETRA      6104       1     926     563     564     878
CTETRA      6105       1    2633    2658     927     669
CTETRA      6106       1     158     159       6     182
CTETRA      6107       1    2924     608    2925     927
CTETRA      6108       1     108       2     296       3
CTETRA      6109       1    2925     608     605     927
CTETRA      6110       1    2918     605     608     603
CTETRA      6111       1    2918    2925     608     605
CTETRA      6112       1    1755    1771    1770     499
CTETRA      6113       1    2306    2822    2823     432
CTETRA      6114       1    2069    2071    2893     270
CTETRA      6115       1    2913    2925     605     878
CTETRA      6116       1    2071    2892    2893     270
CTETRA      6117       1    2913     605     564     878
CTETRA      6118       1    2910    2959     936     415
CTETRA      6119       1    2017    2933    2910     415
CTETRA      6120       1    3964    2032    2311    2313
CTETRA      6121       1     711     415    1091    1053
CTETRA      6122       1    2911    1091     415    1053
CTETRA      6123       1    3336    1162    1161     168
CTETRA      6124       1    2014    2910     936     415
CTETRA      6125       1    3964    2023    2032    2313
CTETRA      6126       1    2012    2014     936     415
CTETRA      6127       1    2012     933    2015     415
CTETRA      6128       1     926     602     601     603
CTETRA      6129       1    3348    3349    1159     399
CTETRA      6130       1    1749     837      87      93
CTETRA      6131       1     913     837     250     649
CTETRA      6132       1     253     648     241     649
CTETRA      6133       1     913      88     837     649
CTETRA      6134       1      91      93     837     364
CTETRA      6135       1    2856    2857     517     507
CTETRA      6136       1    3670    2834    2831    1056
CTETRA      6137       1    1269     856    1272     507
CTETRA      6138       1    2045     596     264     233
CTETRA      6139       1    2271     222     186     235
CTETRA      6140       1    2045     264     267     233
CTETRA      6141       1    3689    3690    1330    2324
CTETRA      6142       1    2054     267    2061     270
CTETRA      6143       1    1699    1715    1714     747
CTETRA      6144       1    1707    1723    1095     314
CTETRA      6145       1    2891    2892     267     270
CTETRA      6146       1    2890     264    2906     267
CTETRA      6147       1    2888    2891     267     270
CTETRA      6148       1    2888     267    2897    1049
CTETRA      6149       1    3420    1159    1158     965
CTETRA      6150       1    2307     279     432     433
CTETRA      6151       1    2000     816    2003     376
CTETRA      6152       1    2375    2379     780     480
CTETRA      6153       1    3757    3758    1434    2369
CTETRA      6154       1    2001    2004    2003     812
CTETRA      6155       1    2001     816    2685     815
CTETRA      6156       1    2003     812    2006     376
CTETRA      6157       1    2358     666    2361     766
CTETRA      6158       1    1989    2679    2670     816
CTETRA      6159       1    2156    2163    2162     268
CTETRA      6160       1    2671    2680     816     695
CTETRA      6161       1    3484    3485    1685    1538
CTETRA      6162       1    3112    3113    3128     638
CTETRA      6163       1     814     695     816     341
CTETRA      6164       1    2329    2330    2758     680
CTETRA      6165       1    3898    2205    2211     781
CTETRA      6166       1    2680    2681     815     341
CTETRA      6167       1    1428    3118    1429     638
CTETRA      6168       1    1989    2679     816     518
CTETRA      6169       1    2949     814     937     341
CTETRA      6170       1    2679     695     518     696
CTETRA      6171       1    2680     816     695     341
CTETRA      6172       1    2777    1041    1103     679
CTETRA      6173       1     875     672    1041     924
CTETRA      6174       1    3112    3117    3113     638
CTETRA      6175       1     683    1043    1103    1150
CTETRA      6176       1    2849    1043    3099    1102
CTETRA      6177       1    2558    1105     970     972
CTETRA      6178       1    1041    1103    1043    1102
CTETRA      6179       1    1360    2565    1374     972
CTETRA      6180       1    2849     672    1043    1102
CTETRA      6181       1    3090    3173    1114     359
CTETRA      6182       1     844     393     437     315
CTETRA      6183       1    3806    1372    1374    2566
CTETRA      6184       1    3900    2193    2199     280
CTETRA      6185       1    4064    4065    2228    3178
CTETRA      6186       1    1692    1543    1693     314
CTETRA      6187       1    3820     392     393     394
CTETRA      6188       1     287     289     439     290
CTETRA      6189       1    3893    2244    2245    2384
CTETRA      6190       1    3896    3897    2217    2381
CTETRA      6191       1    1458    1464    3191     301
CTETRA      6192       1    3140    3146    3145     871
CTETRA      6193       1    1480    1481    1487    1033
CTETRA      6194       1    3805    1374    2565    2566
CTETRA      6195       1    4124     980     549      25
CTETRA      6196       1    1501    1502    1504     473
CTETRA      6197       1     393     887     394     427
CTETRA      6198       1    2220    2237    2233     817
CTETRA      6199       1    2234    2236    2235    1136
CTETRA      6200       1    2232    2236    2234     817
CTETRA      6201       1    3169    3185    3184    1152
CTETRA      6202       1      28      53     494      29
CTETRA      6203       1     287     438     888      49
CTETRA      6204       1    1490     472    2414     594
CTETRA      6205       1    2412    2416     870     594
CTETRA      6206       1    1491    2413    2412     594
CTETRA      6207       1    3138    3188    3186     874
CTETRA      6208       1    1490    2413    1491     594
CTETRA      6209       1    1480     864     865     869
CTETRA      6210       1    1492    2412     870     594
CTETRA      6211       1    3139    3147    3146     600
CTETRA      6212       1    3138    3148    3147     600
CTETRA      6213       1    3770    3771    1490    2413
CTETRA      6214       1     600     594     874     473
CTETRA      6215       1    3416    1161    1162     928
CTETRA      6216       1    4176    1482    1488    3202
CTETRA      6217       1    1492     594     870     595
CTETRA      6218       1    1471    1477    1476     665
CTETRA      6219       1    2339    2359    2358     666
CTETRA      6220       1    3201     671     665     471
CTETRA      6221       1    3767    2350    1466    2351
CTETRA      6222       1    3770    2413    1490    2414
CTETRA      6223       1    1490    1501     472     594
CTETRA      6224       1    1336    1339     428     763
CTETRA      6225       1    2097    2098    2101     231
CTETRA      6226       1    1336     428    1131     763
CTETRA      6227       1    2462    2463    2464    1030
CTETRA      6228       1     609    1131    1003    1127
CTETRA      6229       1    3273    3274    3280    1090
CTETRA      6230       1    2470    2479     984     693
CTETRA      6231       1    1370    1371    1375     637
CTETRA      6232       1    3319    3320    3331     763
CTETRA      6233       1    3325    3330    1131     763
CTETRA      6234       1    3805    3806    1374    2566
CTETRA      6235       1    3320    1131    3330     763
CTETRA      6236       1    1339    1355    2444     945
CTETRA      6237       1    3808    1380    1377    2523
CTETRA      6238       1    3329     785     984     693
CTETRA      6239       1    3969    1610    1597     960
CTETRA      6240       1    2444     945    2479     693
CTETRA      6241       1    3788    1345    1332    2466
CTETRA      6242       1    1332    1440    2332    1030
CTETRA      6243       1    2155    2162    2161     900
CTETRA      6244       1    1335    1336    1131     763
CTETRA      6245       1    1364     609    1365     646
CTETRA      6246       1    2335    2439    2437    1122
CTETRA      6247       1    1439    1448    1445    1069
CTETRA      6248       1    1336     609    1364    1131
CTETRA      6249       1    2335    2437    2336     900
CTETRA      6250       1    1342    2543    2544     428
CTETRA      6251       1    2437    2439    2438    1119
CTETRA      6252       1    1338    1339    2444     428
CTETRA      6253       1    1467    2417    1101     865
CTETRA      6254       1    1496    3155    3148     600
CTETRA      6255       1    1338    2444    2543     428
CTETRA      6256       1    2417    2418    2440    1101
CTETRA      6257       1    2642     606     926     601
CTETRA      6258       1    2574    2637    2638     223
CTETRA      6259       1     608     606     927     669
CTETRA      6260       1    3084    3165    3085     976
CTETRA      6261       1     785     354     984     693
CTETRA      6262       1    3289    3291    3293     219
CTETRA      6263       1    2420    2433    2436     661
CTETRA      6264       1    3869    2166    2454    2457
CTETRA      6265       1    3874    3875    2155    2432
CTETRA      6266       1    2335    2458    2460     261
CTETRA      6267       1    2089    3292    3265     199
CTETRA      6268       1    1293    2922     853     607
CTETRA      6269       1    3789    3790    1345    2467
CTETRA      6270       1    3970    3333    1609     400
CTETRA      6271       1    1359    1371     637     972
CTETRA      6272       1    1286     601     607     223
CTETRA      6273       1     926     604     602     603
CTETRA      6274       1    3305    3307    3306     782
CTETRA      6275       1    2637     606     601     223
CTETRA      6276       1    3786    3787    1440    2332
CTETRA      6277       1    1276    2638     601     223
CTETRA      6278       1    3864    2093    2091    2495
CTETRA      6279       1    2637     822     606     223
CTETRA      6280       1    3794    2476    1356    2477
CTETRA      6281       1    2081    2082     885     311
CTETRA      6282       1    2080    2113    2484     664
CTETRA      6283       1    3801    2563    1361    2564
CTETRA      6284       1     822     606     608     669
CTETRA      6285       1    3792    3793    1357    2477
CTETRA      6286       1    2633    2637     822     606
CTETRA      6287       1    1109    1111     995    1110
CTETRA      6288       1    2185    2187    1110     193
CTETRA      6289       1    2532     609    2541    1127
CTETRA      6290       1    2179    2185    2184    1110
CTETRA      6291       1    3802    1363    1361    2567
CTETRA      6292       1    3103    1111    3110    1110
CTETRA      6293       1    4050    2186    2187    3106
CTETRA      6294       1    2179    1110    1109     193
CTETRA      6295       1    4091    4092    2101    3317
CTETRA      6296       1    3856    2113    2114    2448
CTETRA      6297       1    3106     995    1110     193
CTETRA      6298       1    3103     995    1111    1110
CTETRA      6299       1    1224    3074     656      37
CTETRA      6300       1    3049    3057      41      35
CTETRA      6301       1    2716    2717      40     657
CTETRA      6302       1    2691      40    2692      34
CTETRA      6303       1    2692      40    2717      34
CTETRA      6304       1    1219    2707    2691      40
CTETRA      6305       1    2470    2479    2480     984
CTETRA      6306       1    3857    2080    2113    2484
CTETRA      6307       1    3858    2086    2080    2484
CTETRA      6308       1    1217      34      39      35
CTETRA      6309       1      40      42      34      35
CTETRA      6310       1    1213      40    1218      37
CTETRA      6311       1    2691    2720    2692      40
CTETRA      6312       1    2691      40      34      35
CTETRA      6313       1    2580    2599     613     619
CTETRA      6314       1    3867    3868    2160    2492
CTETRA      6315       1    3296     783     984     944
CTETRA      6316       1    2599    2600     613     884
CTETRA      6317       1    2596     613    2600     884
CTETRA      6318       1    2473    2474    2480    1066
CTETRA      6319       1    3862    2493    2095     228
CTETRA      6320       1    3863    2091    2095    2493
CTETRA      6321       1    3866    2079    2491    2492
CTETRA      6322       1    2077    2090    2078     197
CTETRA      6323       1    2489    2491    2495     234
CTETRA      6324       1    2488    2489    2495     811
CTETRA      6325       1    2596    2598    2597     613
CTETRA      6326       1    3322    3323    3332     646
CTETRA      6327       1    2578     613    2579    1055
CTETRA      6328       1    2579    2597    2598     613
CTETRA      6329       1    2065    2598    2066     613
CTETRA      6330       1    2066    2072     613     884
CTETRA      6331       1    3969    3970    1610     960
CTETRA      6332       1    3229     687     905     692
CTETRA      6333       1    2139    2142    2141     701
CTETRA      6334       1    2870    1006     832     342
CTETRA      6335       1    2513    2518    2514     685
CTETRA      6336       1    2318    2505    2516     887
CTETRA      6337       1    1866    1867    1882    1061
CTETRA      6338       1     617     570     851     853
CTETRA      6339       1     834    1081     617     823
CTETRA      6340       1    2577     349    2659     823
CTETRA      6341       1    2576     617    2584    1081
CTETRA      6342       1    2862    2916     834     853
CTETRA      6343       1    2516    2519    2517    1019
CTETRA      6344       1    3484    1685    1684    1538
CTETRA      6345       1    2142    2143    2145     329
CTETRA      6346       1    2147     495    2148     494
CTETRA      6347       1    2513    2515    2518     685
CTETRA      6348       1    3847    3848    2126    2552
CTETRA      6349       1    2584     617    2586    1126
CTETRA      6350       1     617    1126    1085     851
CTETRA      6351       1    2317    2516    2504    1019
CTETRA      6352       1     887     493    1048    1019
CTETRA      6353       1    2514    2517    2519    1048
CTETRA      6354       1     641     566     903     642
CTETRA      6355       1    3812    2510    1392     842
CTETRA      6356       1    1822    1837     154     395
CTETRA      6357       1    2711     196    2712      42
CTETRA      6358       1    1115     805    1072    1151
CTETRA      6359       1    3396    1675     155     715
CTETRA      6360       1    3101     807    1111    1144
CTETRA      6361       1    2520    2523    2524     969
CTETRA      6362       1    2546    2550    2549     796
CTETRA      6363       1     946     500     872    1151
CTETRA      6364       1    4136    4137    1378    3244
CTETRA      6365       1    2305    2306    2823    1007
CTETRA      6366       1    3238     973     848     642
CTETRA      6367       1    3126    3127     872    1151
CTETRA      6368       1    2306     691     432    1007
CTETRA      6369       1    3813    2305    1395    1099
CTETRA      6370       1    3126     872    1072    1151
CTETRA      6371       1    2499    2559    2556     970
CTETRA      6372       1    1072     805     807    1151
CTETRA      6373       1     805    1151     500    1144
CTETRA      6374       1     946     680    1098     500
CTETRA      6375       1    3848    3849    2123    2553
CTETRA      6376       1    3236    3238    3237     642
CTETRA      6377       1    2329    1098     680     500
CTETRA      6378       1    2329     680    2758     500
CTETRA      6379       1    1337    1342    2530     428
CTETRA      6380       1    2328    1037    2329     500
CTETRA      6381       1    2561    2562    2567    1142
CTETRA      6382       1    3855    3856    2114    2448
CTETRA      6383       1    1115     872    1037     500
CTETRA      6384       1    2446     252     664    1003
CTETRA      6385       1    3359    1168     886     584
CTETRA      6386       1    3860    3861    2094    2494
CTETRA      6387       1    3209    3311    3327     311
CTETRA      6388       1    2558    2566    2565     972
CTETRA      6389       1    3325    3327    3328    1003
CTETRA      6390       1    1168     886     584     246
CTETRA      6391       1    1169     430    1170     251
CTETRA      6392       1    1351    1352    1354     945
CTETRA      6393       1    2445     428     693    1003
CTETRA      6394       1    2106    2110     885     462
CTETRA      6395       1    3981    1636    1629     430
CTETRA      6396       1      61     365     868      62
CTETRA      6397       1    2548    2552    2551     351
CTETRA      6398       1     886     246     251     363
CTETRA      6399       1    3214    3215    3237     902
CTETRA      6400       1     886     363     585     586
CTETRA      6401       1    3805    1374    1360    2565
CTETRA      6402       1    3357     886    1170     430
CTETRA      6403       1    3357    1629     886     430
CTETRA      6404       1     584     246     363     364
CTETRA      6405       1    1142     646     609    1127
CTETRA      6406       1    2335    2437     900    1122
CTETRA      6407       1    1359    1360    1371     972
CTETRA      6408       1     900     192     169    1122
CTETRA      6409       1    2335     900     261    1122
CTETRA      6410       1    2437     976     900    1122
CTETRA      6411       1    3156     659    3159     799
CTETRA      6412       1    3812    1389    2527     842
CTETRA      6413       1    3159     659    3162     799
CTETRA      6414       1    3147     600    3155     799
CTETRA      6415       1    3146     799    3162     328
CTETRA      6416       1     600     798     799     871
CTETRA      6417       1    3146     600    3147     799
CTETRA      6418       1    2756    2770    1109     674
CTETRA      6419       1    3804    1360    1363    2565
CTETRA      6420       1    2756    1109    2757     674
CTETRA      6421       1    2864    2865    2883     619
CTETRA      6422       1    2925     605     878     927
CTETRA      6423       1    2065    2066    2072     613
CTETRA      6424       1    2042    2048    2047    1116
CTETRA      6425       1    2658    2659    2661    1113
CTETRA      6426       1     996     673     188     877
CTETRA      6427       1    4242    4243    1296    2921
CTETRA      6428       1    2768    1103    1041     674
CTETRA      6429       1    1325    1328     552     779
CTETRA      6430       1    2767    2772     674     877
CTETRA      6431       1    2767    2768    1041     674
CTETRA      6432       1    2576     822    2586     617
CTETRA      6433       1    1276    1286    1285     223
CTETRA      6434       1     822     570     853     223
CTETRA      6435       1     995     674     673    1102
CTETRA      6436       1    2632    2642     606     926
CTETRA      6437       1    2575    2576    2633     822
CTETRA      6438       1    3702    3703    1288    2589
CTETRA      6439       1    2586    2589    2591     570
CTETRA      6440       1    3419    1163    1164    1094
CTETRA      6441       1    1902     647    1903    1137
CTETRA      6442       1     206      30     647     645
CTETRA      6443       1    3703    3704    1285    2590
CTETRA      6444       1    1603    1606    1605     142
CTETRA      6445       1    3955    2065    2064    2579
CTETRA      6446       1      24      26      30      27
CTETRA      6447       1    3483    1684    1683    1533
CTETRA      6448       1    2865    2868    2869     832
CTETRA      6449       1    1887     389     891     647
CTETRA      6450       1    1872    1887     891     654
CTETRA      6451       1    2556     641     903     642
CTETRA      6452       1    3212     434    3226     892
CTETRA      6453       1    3969    3334    3970     960
CTETRA      6454       1     892    1009     841     848
CTETRA      6455       1    1728    1744    1743     398
CTETRA      6456       1    3958    3959    2067    2603
CTETRA      6457       1    3213    3239     892    1009
CTETRA      6458       1    3239    3241     892     419
CTETRA      6459       1    2926     343    1118    1116
CTETRA      6460       1    3450     546     381    1074
CTETRA      6461       1    2926    1118    2930    1117
CTETRA      6462       1    1697    1698    1713     466
CTETRA      6463       1    2926    1117    2934    1116
CTETRA      6464       1    3963    3964    2032    2311
CTETRA      6465       1    2926    1118    1117    1116
CTETRA      6466       1    2030    2036    1054     713
CTETRA      6467       1    1892    1128     819     190
CTETRA      6468       1    3965    2023    2313    2314
CTETRA      6469       1    2276     283     477     455
CTETRA      6470       1    4253    1327    1326    2833
CTETRA      6471       1    1143    1117     897     713
CTETRA      6472       1    1756    1772    1771     418
CTETRA      6473       1    2592    2616    2615     233
CTETRA      6474       1    1085     303    1126     619
CTETRA      6475       1    4001    4002    2062    2874
CTETRA      6476       1     711    1091     713    1053
CTETRA      6477       1    2042     897    2048    1116
CTETRA      6478       1    3993    3994    2071    2892
CTETRA      6479       1    2930    1117    1143    1054
CTETRA      6480       1    4005    2934    2936    1117
CTETRA      6481       1    1322    1323    1326     765
CTETRA      6482       1    2622    2623    2624    1016
CTETRA      6483       1    4005    2041    2047    1117
CTETRA      6484       1    3990    2040    2840    2907
CTETRA      6485       1    2023    2032    2313     861
CTETRA      6486       1    1741    1742    1757     414
CTETRA      6487       1    3313    3329     785    1068
CTETRA      6488       1    2083    3314     311     633
CTETRA      6489       1    3965    2026    2023    2314
CTETRA      6490       1    3312    3314    3318     633
CTETRA      6491       1    3311     311    3314     633
CTETRA      6492       1    3591     284     740     397
CTETRA      6493       1    1730      78     747     238
CTETRA      6494       1    3325     763    1131    1003
CTETRA      6495       1    2860    2923    2928     823
CTETRA      6496       1    1280    1282    1281     604
CTETRA      6497       1    3706    3707    1284    2636
CTETRA      6498       1    3311    3328     311     633
CTETRA      6499       1    3321    3332    1131     646
CTETRA      6500       1    1244    2640    2639     602
CTETRA      6501       1    3206     646    3323    1147
CTETRA      6502       1    3207    3324     646    1127
CTETRA      6503       1    1289    1293     853     607
CTETRA      6504       1    1283    1284    2636     601
CTETRA      6505       1    1276     601    1286     223
CTETRA      6506       1    2949    2950     814     341
CTETRA      6507       1    3591     519     284     397
CTETRA      6508       1     711     878    1091     565
CTETRA      6509       1    4258    4259    1331     143
CTETRA      6510       1    3324    1131     646    1127
CTETRA      6511       1    2653    2687    2682     933
CTETRA      6512       1    2266     446     730    1059
CTETRA      6513       1    1272    1275    1273    1124
CTETRA      6514       1     730     242    1120     735
CTETRA      6515       1     239     729     730     242
CTETRA      6516       1    3431    3432    1548     730
CTETRA      6517       1    1265     977    1270     978
CTETRA      6518       1    3431    2266     730    1059
CTETRA      6519       1     333     335     334     681
CTETRA      6520       1    1468    1474     865    1033
CTETRA      6521       1    1468     865    1036    1033
CTETRA      6522       1    3163     869    1036     663
CTETRA      6523       1    1480    1487     659     869
CTETRA      6524       1    3360    1172    1168     584
CTETRA      6525       1     712    1143     897     713
CTETRA      6526       1    2653    2654    2687     933
CTETRA      6527       1    2859    2874    2873     343
CTETRA      6528       1    1261    1262    1272     856
CTETRA      6529       1    2043    2660    2049     897
CTETRA      6530       1    2640    2642    2641     602
CTETRA      6531       1    2662    2665     897     713
CTETRA      6532       1    1091     712    1143     878
CTETRA      6533       1     343     669     349     823
CTETRA      6534       1    1278    1287     601     603
CTETRA      6535       1    2880     303    2884     298
CTETRA      6536       1    2858     343    2926    1116
CTETRA      6537       1    2860    2870    2868     823
CTETRA      6538       1    2858    2874    2859     343
CTETRA      6539       1    2859    2870    2860     343
CTETRA      6540       1    3423    1169     251     590
CTETRA      6541       1    2580     613     831     619
CTETRA      6542       1     349     342    1055     340
CTETRA      6543       1    1124     855     507     508
CTETRA      6544       1    1118     349     343     669
CTETRA      6545       1    2926    2928    1118     343
CTETRA      6546       1     802     409     410     328
CTETRA      6547       1    1636     710     585     904
CTETRA      6548       1    1995    2679     518     696
CTETRA      6549       1    1922    1973    1923    1013
CTETRA      6550       1    2202    3143     802     410
CTETRA      6551       1    2961    2962     814     518
CTETRA      6552       1    2202     802    2203     410
CTETRA      6553       1    1308    2880    2887     298
CTETRA      6554       1    1991    1997    1996    1047
CTETRA      6555       1    1995    2678    2679     696
CTETRA      6556       1    2671    2675    2672     695
CTETRA      6557       1    2956    2961    2962     814
CTETRA      6558       1    2215    2222    1129     327
CTETRA      6559       1    3185    1152     867     817
CTETRA      6560       1     410     327     871     328
CTETRA      6561       1    2951     507     517     341
CTETRA      6562       1    2675     699     695     696
CTETRA      6563       1    2671    2680    2686     816
CTETRA      6564       1     870     600    1100     871
CTETRA      6565       1    3468    1594    1027     232
CTETRA      6566       1    1250     568    2942     561
CTETRA      6567       1    2289     390     426    1027
CTETRA      6568       1    1261    1272    1269     856
CTETRA      6569       1    2671    2672    2680     695
CTETRA      6570       1    3468    1027     226     232
CTETRA      6571       1    3467     390    2289    1027
CTETRA      6572       1    2654    2690    2687     933
CTETRA      6573       1    1268    1270     517     507
CTETRA      6574       1     711     933     415    1053
CTETRA      6575       1    2008    2009    2011     937
CTETRA      6576       1    2014    2015    2017     415
CTETRA      6577       1    1304    1305    1308     303
CTETRA      6578       1    3653     426     403     431
CTETRA      6579       1     308     431     312      72
CTETRA      6580       1    1183     768    1231     770
CTETRA      6581       1    1301     851     303     618
CTETRA      6582       1    1226    1227    1233     504
CTETRA      6583       1     287     288      49      51
CTETRA      6584       1    3651     426    2289     778
CTETRA      6585       1    1232    2721    2702     678
CTETRA      6586       1     308     312     309      72
CTETRA      6587       1     426     312     431     435
CTETRA      6588       1    3651    4122     403     425
CTETRA      6589       1    1235     326    3080     332
CTETRA      6590       1    3730    1225    1221    2710
CTETRA      6591       1    1966    1968    2746     893
CTETRA      6592       1     858     389     391      33
CTETRA      6593       1    3359     886    1627     584
CTETRA      6594       1     425     426     778     391
CTETRA      6595       1      60     388    1027      11
CTETRA      6596       1    2291     431      18     226
CTETRA      6597       1    3653    2290     426     431
CTETRA      6598       1    2290     426     431    1027
CTETRA      6599       1    3980    1629    1627     886
CTETRA      6600       1    2969    3059    3060     209
CTETRA      6601       1    3654     880      18     308
CTETRA      6602       1    1958    1959    1961     209
CTETRA      6603       1    1926    1961    1959    1125
CTETRA      6604       1    3979    3359    3980    1627
CTETRA      6605       1    1214    3073    3074      37
CTETRA      6606       1    1894    1909     382     131
CTETRA      6607       1    2699    2741    2743     893
CTETRA      6608       1    2716    2717    2720      40
CTETRA      6609       1    2864     834    2868     832
CTETRA      6610       1    2865     884    2879     346
CTETRA      6611       1     611     610     890     818
CTETRA      6612       1    2391     818     890     359
CTETRA      6613       1    2712    2714    2713     800
CTETRA      6614       1    2699    2716    1093     657
CTETRA      6615       1    3728    1226    1232    2702
CTETRA      6616       1     809     760     890     787
CTETRA      6617       1    3089     611    1114     787
CTETRA      6618       1    2345     753     890     760
CTETRA      6619       1    2388    2391     809     890
CTETRA      6620       1    4228    1268    1267    2857
CTETRA      6621       1    3980    3357    3981    1629
CTETRA      6622       1    2386    2388     809     760
CTETRA      6623       1    1904    1591    1132    1017
CTETRA      6624       1     174    1132     739    1017
CTETRA      6625       1    3477     739    1591    1017
CTETRA      6626       1    3725    3726    1241    2728
CTETRA      6627       1    1905    1580    1591    1017
CTETRA      6628       1    4260     355    1604     125
CTETRA      6629       1    1890     792     911    1017
CTETRA      6630       1    1671    1023    1678     474
CTETRA      6631       1    3571    3625    3624    1023
CTETRA      6632       1    3571    1678    1671    1023
CTETRA      6633       1    1058    1022     129     132
CTETRA      6634       1     889    1023     474     132
CTETRA      6635       1    1671     889    1023     474
CTETRA      6636       1    3929    3930    1985    2734
CTETRA      6637       1    1965    1966    1970     210
CTETRA      6638       1    2351    2352    2360     300
CTETRA      6639       1     299     539     300     359
CTETRA      6640       1    2382     300     539     359
CTETRA      6641       1    1454     539    2349     300
CTETRA      6642       1    2699    1093     893     657
CTETRA      6643       1    1226    1233    1232     504
CTETRA      6644       1    2969    2989     209    1125
CTETRA      6645       1    2700    2716     658    1093
CTETRA      6646       1    2699    2711    2716     657
CTETRA      6647       1    2348    2349     539     300
CTETRA      6648       1     625     893     624    1093
CTETRA      6649       1    3259     637    3260     971
CTETRA      6650       1    3902    2191    2188    2764
CTETRA      6651       1    3905    3906    2180    2771
CTETRA      6652       1    3667    3668    2904     519
CTETRA      6653       1    4050    2186    3106    3110
CTETRA      6654       1    2772     188     674     877
CTETRA      6655       1    1376     422     424     972
CTETRA      6656       1    2179    1109    1110     803
CTETRA      6657       1    2191    2764    2765     803
CTETRA      6658       1    2556     643     641     642
CTETRA      6659       1    2188    2764    2191     803
CTETRA      6660       1    3901    2188    2763    2764
CTETRA      6661       1    1371     424     637     972
CTETRA      6662       1    1378    1379    1381     424
CTETRA      6663       1    3903    2191    2764    2765
CTETRA      6664       1    1371    1376     424     972
CTETRA      6665       1    1377     969    1379     422
CTETRA      6666       1    2178    2186    3110    1111
CTETRA      6667       1    3240     423     973     424
CTETRA      6668       1    1385     419    1387     423
CTETRA      6669       1    3752    3753    1412    2775
CTETRA      6670       1    3719    2568    1258    2645
CTETRA      6671       1    1388     843     842     419
CTETRA      6672       1    3719    1253    1258    2568
CTETRA      6673       1    2501    2558     422     972
CTETRA      6674       1    1009     690     973     423
CTETRA      6675       1    2557    2558    1105     970
CTETRA      6676       1    1376    1377    1379     422
CTETRA      6677       1    1180    1414    1413    1040
CTETRA      6678       1     970     993     643     644
CTETRA      6679       1    1412    1418    1417     679
CTETRA      6680       1    1375    3234     637     424
CTETRA      6681       1    3099    3101    3100    1102
CTETRA      6682       1    3754    1421    1418     676
CTETRA      6683       1    3755    3756    1427    2370
CTETRA      6684       1    3752    1412    1415    2776
CTETRA      6685       1    3234     971     637     424
CTETRA      6686       1    3251    3255    3254     793
CTETRA      6687       1     769     337     767     768
CTETRA      6688       1    2645     854    2648     978
CTETRA      6689       1    3245    3246     794     793
CTETRA      6690       1    2108     462    3254     793
CTETRA      6691       1     794     463     643     793
CTETRA      6692       1    1254     768    1259     979
CTETRA      6693       1    3247    3251    3249     463
CTETRA      6694       1     796     643     463     793
CTETRA      6695       1    2783    2791    2790     191
CTETRA      6696       1     641     794     643     793
CTETRA      6697       1    3910    1932    2783    2802
CTETRA      6698       1    2786    2792    2793     488
CTETRA      6699       1    1188    1190    1189     485
CTETRA      6700       1    3001     194     994     673
CTETRA      6701       1    2750    2751    2790     996
CTETRA      6702       1    3261     794     463     644
CTETRA      6703       1     463     993     643     968
CTETRA      6704       1    1834     443     384     178
CTETRA      6705       1    1180    1190    1181     962
CTETRA      6706       1    1928    3000    2999     777
CTETRA      6707       1    2180    2749    2181     189
CTETRA      6708       1    3906    2749    2180    2771
CTETRA      6709       1    2846    2996    2847     994
CTETRA      6710       1    1834     443    1849     384
CTETRA      6711       1     383     481     385     413
CTETRA      6712       1     384     383     985     830
CTETRA      6713       1    3720    1257    1253     979
CTETRA      6714       1    1833     384     930     931
CTETRA      6715       1    1848     930     384     383
CTETRA      6716       1    3742    1199    1200    2801
CTETRA      6717       1    3747    3748    1190    2781
CTETRA      6718       1    1930    1936    1935     773
CTETRA      6719       1     703     736     170     737
CTETRA      6720       1    1095     731     509     737
CTETRA      6721       1     509     735     242    1092
CTETRA      6722       1    3736    3737    1211    2814
CTETRA      6723       1    2693    2717    2712      42
CTETRA      6724       1    3911    3912    1930    2795
CTETRA      6725       1    3742    3743    1199    2788
CTETRA      6726       1    1615     240    1616    1092
CTETRA      6727       1     446     730    1059     735
CTETRA      6728       1    1082    1094     466     237
CTETRA      6729       1      67      70      69      81
CTETRA      6730       1    1959     209    2989    1125
CTETRA      6731       1     127     128     124     120
CTETRA      6732       1    1163      99    1082    1094
CTETRA      6733       1    3344    1163      99    1082
CTETRA      6734       1    1940    2988     774     951
CTETRA      6735       1    3344     786     127      99
CTETRA      6736       1    3346    1082     127     124
CTETRA      6737       1    3346    1164    1082     124
CTETRA      6738       1    3985    3349    3986    1604
CTETRA      6739       1    2808    2809    2811     948
CTETRA      6740       1     627     629    1008      15
CTETRA      6741       1    3684    1858    3685     582
CTETRA      6742       1    3399    3445    3400     901
CTETRA      6743       1    3400    3445     352     881
CTETRA      6744       1    1926    1927    1961     800
CTETRA      6745       1    3736    2814    1203    2815
CTETRA      6746       1    1823     920    1838     195
CTETRA      6747       1    3399    3400    3445    4288
CTETRA      6748       1     756     755     754     758
CTETRA      6749       1    3400    1008     156     881
CTETRA      6750       1     156    1008     281     898
CTETRA      6751       1    3401     627    1512    1008
CTETRA      6752       1    3446     352      19     277
CTETRA      6753       1    3644    2287    2282     205
CTETRA      6754       1    2451    2452     465     975
CTETRA      6755       1     429     427     313     312
CTETRA      6756       1    3299     465    3300     944
CTETRA      6757       1    3267    3301     465     975
CTETRA      6758       1    2452     198     465     975
CTETRA      6759       1    2831    2834    2832    1056
CTETRA      6760       1    3344    3830    3345     127
CTETRA      6761       1    3502    3503    1789    1555
CTETRA      6762       1    2896    2905    2903    1014
CTETRA      6763       1    3299     230     465     944
CTETRA      6764       1    1322    1326    1325    1088
CTETRA      6765       1    3267    3299     199     465
CTETRA      6766       1     230     811     465     944
CTETRA      6767       1    3589    3669    3590     571
CTETRA      6768       1    4253    4254    1327    2833
CTETRA      6769       1    3581    2269     954      67
CTETRA      6770       1    1319     765    1011     297
CTETRA      6771       1    1728    1729    1744     236
CTETRA      6772       1    2472     465     811     944
CTETRA      6773       1    1742    1743    1758     421
CTETRA      6774       1    3171    1134    3175     756
CTETRA      6775       1    2310    2611    2316     861
CTETRA      6776       1    3443    2272    2274    1060
CTETRA      6777       1    3595    2274    2272     704
CTETRA      6778       1    2906    2908    2909    1107
CTETRA      6779       1    1134    1152    1149     866
CTETRA      6780       1    3188    1152    1134     874
CTETRA      6781       1    1134     874    1152     866
CTETRA      6782       1    2024    2034    2033    1106
CTETRA      6783       1    2054     233     267     270
CTETRA      6784       1    3188     874    1134     469
CTETRA      6785       1    3171    1134     756     469
CTETRA      6786       1    1391     419     842     846
CTETRA      6787       1    2309    2315    2316     861
CTETRA      6788       1    3242     419    1009     423
CTETRA      6789       1    2023    2026    2024     322
CTETRA      6790       1     892     841    1009     419
CTETRA      6791       1    3239    1009    3242     419
CTETRA      6792       1     275     242     509     735
CTETRA      6793       1    3441    2277    2275     396
CTETRA      6794       1    2843    2845    2844    1084
CTETRA      6795       1    1737    1095     731     509
CTETRA      6796       1     514     240     516     510
CTETRA      6797       1    2878    2888    2900    1049
CTETRA      6798       1    4248    1314    1311    2885
CTETRA      6799       1     836     509     250     510
CTETRA      6800       1    2884     303     302     298
CTETRA      6801       1    1306    1310    1309     304
CTETRA      6802       1     648     417     729     242
CTETRA      6803       1    1305    2882     303     851
CTETRA      6804       1    2918    2919    2920     603
CTETRA      6805       1    1294    1298    1297     618
CTETRA      6806       1    2072    2073    2075    1006
CTETRA      6807       1    2880    2882    2881     303
CTETRA      6808       1     275     509     731     735
CTETRA      6809       1    3441    1563     741     835
CTETRA      6810       1     542     934     527     529
CTETRA      6811       1    1521     263     545     525
CTETRA      6812       1    3524    1918    1592    1593
CTETRA      6813       1    2880    2881    2884     303
CTETRA      6814       1    1298    1299    1302     851
CTETRA      6815       1    1304     303    1308     298
CTETRA      6816       1    3553    1649    1654     263
CTETRA      6817       1     751     526     525     529
CTETRA      6818       1    1302    2882    1305     851
CTETRA      6819       1    2057    2063    2062     340
CTETRA      6820       1    1649     934    1654     529
CTETRA      6821       1    3374    1649    3553     263
CTETRA      6822       1    2869    2875    2871    1006
CTETRA      6823       1    3950    2043    2037    2660
CTETRA      6824       1     608     926     606     603
CTETRA      6825       1    2632    2657     878     927
CTETRA      6826       1    3959    2601    2059    2603
CTETRA      6827       1    2889    2892    2894     267
CTETRA      6828       1    1307    1311    1310     298
CTETRA      6829       1    1118     343     349     339
CTETRA      6830       1    1113    1118     349     339
CTETRA      6831       1    2038     596    2045     233
CTETRA      6832       1    1113    1143    1118     897
CTETRA      6833       1    2036     897    1117     713
CTETRA      6834       1    2657    2658     712     927
CTETRA      6835       1    2659    2661    1113     349
CTETRA      6836       1    2659     349    1113     669
CTETRA      6837       1    1313    1317    1316     297
CTETRA      6838       1    2403     594     866    1100
CTETRA      6839       1    1254    1255    1260     768
CTETRA      6840       1    3588    3671    3670     554
CTETRA      6841       1    2877    2900    2901     764
CTETRA      6842       1    3956    2066    2065    2598
CTETRA      6843       1    2403     870    2416     594
CTETRA      6844       1    3170    1134    3188    1152
CTETRA      6845       1    3174    3184    3181     817
CTETRA      6846       1    2889    2891    2892     267
CTETRA      6847       1    2308    2309    2619     553
CTETRA      6848       1    3138     600    3139     874
CTETRA      6849       1    3145     871    3146     328
CTETRA      6850       1    2903     524     882    1015
CTETRA      6851       1    1152     866     874    1100
CTETRA      6852       1    2045    2055    2054     267
CTETRA      6853       1    1310    1314    1313     298
CTETRA      6854       1    2865    2879    2883     346
CTETRA      6855       1    1287    2920    2919     603
CTETRA      6856       1     600     874     594    1100
CTETRA      6857       1    2666     349    1055     340
CTETRA      6858       1    4244    4245    1302    2863
CTETRA      6859       1    2340     594     472     866
CTETRA      6860       1    4242    2922    2921     853
CTETRA      6861       1    2576    2586    2584     617
CTETRA      6862       1     470     472     874     469
CTETRA      6863       1    1067     784     465     944
CTETRA      6864       1    2470    2471     808     984
CTETRA      6865       1    1285    1286    1289     223
CTETRA      6866       1     784     782    1052     465
CTETRA      6867       1    2451     465    1052     975
CTETRA      6868       1    4005    2936    2041    1117
CTETRA      6869       1    3723    3724    1243    2730
CTETRA      6870       1    3300    3301     784     465
CTETRA      6871       1    2924     608     927     669
CTETRA      6872       1    2022    2655    2663     713
CTETRA      6873       1    3295    1068    3299     944
CTETRA      6874       1    1067     784    1052     465
CTETRA      6875       1    1091    1054    1143     713
CTETRA      6876       1    3946    2655    3947     708
CTETRA      6877       1    2657    2658    2665     712
CTETRA      6878       1    2937    2948    2959     936
CTETRA      6879       1    2047    2048    2050    1116
CTETRA      6880       1    2036     897    2042    1117
CTETRA      6881       1    2646    2647     854     855
CTETRA      6882       1    1199    1200    2801     505
CTETRA      6883       1    1197    1198     505     958
CTETRA      6884       1     620     505     958     506
CTETRA      6885       1    2050    2056    2858    1116
CTETRA      6886       1    3472      43     130     141
CTETRA      6887       1    2860    2868    2861     823
CTETRA      6888       1    3473     130     721     131
CTETRA      6889       1    3722    3723    1231    2726
CTETRA      6890       1    2301     137    2303      43
CTETRA      6891       1    3572    1678    3624     137
CTETRA      6892       1    2913     564    2941     565
CTETRA      6893       1     889     721     130     132
CTETRA      6894       1    2626    2647    2627     855
CTETRA      6895       1    1272    1124     855     507
CTETRA      6896       1    1277    1287    1286     601
CTETRA      6897       1    1247    2942    1250     568
CTETRA      6898       1     129     130     132    1021
CTETRA      6899       1    2303     889    2304     130
CTETRA      6900       1     474     476    1020    1024
CTETRA      6901       1    4234    1250    2945    2946
CTETRA      6902       1    2724    1073    2725     333
CTETRA      6903       1    3941    2004    2001    2685
CTETRA      6904       1    1247    1250    1248     568
CTETRA      6905       1    3625    2304    2303     889
CTETRA      6906       1    2015    2018    2017    1053
CTETRA      6907       1    2401    1149    1129    1100
CTETRA      6908       1    2399    1149    2401    1100
CTETRA      6909       1    2006    2007    2009     812
CTETRA      6910       1    2951    2954    2952     507
CTETRA      6911       1    2142    1019    2144     701
CTETRA      6912       1    2136     905     702     701
CTETRA      6913       1    2134     905    3232     702
CTETRA      6914       1    3224    3232    3230     702
CTETRA      6915       1    4111    2137    3224     702
CTETRA      6916       1    4111    3224    2826     702
CTETRA      6917       1    2825    3223     700     329
CTETRA      6918       1    2977    2983    2982    1145
CTETRA      6919       1    2807    2808    2811     948
CTETRA      6920       1    1205    3055    3054     621
CTETRA      6921       1    1203    1219    2691      34
CTETRA      6922       1    2797     795    2798     883
CTETRA      6923       1    2966     621     620     623
CTETRA      6924       1    1212    1220    1213      40
CTETRA      6925       1    2825     700     493     329
CTETRA      6926       1    2975    2980    2979     620
CTETRA      6927       1    1946    2985    2986     950
CTETRA      6928       1    2694    2713    2695     992
CTETRA      6929       1    1961     800     688    1125
CTETRA      6930       1    2145     330     495     329
CTETRA      6931       1    3064    3066     790    1093
CTETRA      6932       1    1925    1125    2990     991
CTETRA      6933       1    1877     819    1892     820
CTETRA      6934       1    4034    1959    2989    2990
CTETRA      6935       1    1876     720    1877     820
CTETRA      6936       1    2969    2981    2989    1125
CTETRA      6937       1     820     791     792    1004
CTETRA      6938       1     112     820     749     113
CTETRA      6939       1     112     819     820     718
CTETRA      6940       1     111     791     820    1004
CTETRA      6941       1    2712      42     800     622
CTETRA      6942       1    1187    2976    1206     620
CTETRA      6943       1    2329    1098    2330     680
CTETRA      6944       1    2370    1098     639     677
CTETRA      6945       1    2330    1098    2370     677
CTETRA      6946       1     253     241     648     242
CTETRA      6947       1    1618     253     239     241
CTETRA      6948       1    3611     253    1620     649
CTETRA      6949       1    2855     517     338     341
CTETRA      6950       1    2855    2951     517     341
CTETRA      6951       1    4039    1947    1946    2986
CTETRA      6952       1    1947    1948    1949     951
CTETRA      6953       1    4036    4037    1939    2991
CTETRA      6954       1    1124     507     856     508
CTETRA      6955       1    4194    4195    1413    3016
CTETRA      6956       1    2627    2681     341     508
CTETRA      6957       1    4194    3017    3016    1040
CTETRA      6958       1    1431    1434    1436    1050
CTETRA      6959       1    2681     815     341     508
CTETRA      6960       1    3010     672     875    1040
CTETRA      6961       1    4041    4042    1948    2988
CTETRA      6962       1     488     486     489     795
CTETRA      6963       1    1198    1200    1199     505
CTETRA      6964       1    1185    2800    1200     771
CTETRA      6965       1     517     855     854     341
CTETRA      6966       1    2786    2798    2797     795
CTETRA      6967       1    2974    2978    2980     506
CTETRA      6968       1    2799    2820    2817     771
CTETRA      6969       1    1197    1199     489     505
CTETRA      6970       1    2626    2672     338     341
CTETRA      6971       1    2672    2680     695     341
CTETRA      6972       1    1200     771    2800     505
CTETRA      6973       1     769     767     337    1097
CTETRA      6974       1     517     854     767     338
CTETRA      6975       1      60      59     522     225
CTETRA      6976       1    1882    1002    1883      59
CTETRA      6977       1    1419    1420    1425     675
CTETRA      6978       1    2792     961     488    1076
CTETRA      6979       1    2328    2759    2760     805
CTETRA      6980       1    3111    3116    3115     946
CTETRA      6981       1      21     635     522      12
CTETRA      6982       1     996     994     673    1045
CTETRA      6983       1    1418    1421    1420     676
CTETRA      6984       1    1883      60      59      13
CTETRA      6985       1      60      12      59      13
CTETRA      6986       1    1868    1883      58      13
CTETRA      6987       1    2329    2368    2330    1098
CTETRA      6988       1    1883      59      58      13
CTETRA      6989       1    1152    1149    1129     817
CTETRA      6990       1    3643    3644    2282     448
CTETRA      6991       1    2222    2398    2239    1129
CTETRA      6992       1    4191    4192    1419    2851
CTETRA      6993       1    1403    1406     278     277
CTETRA      6994       1    1135     756     754     758
CTETRA      6995       1    1923    1990    1998    1012
CTETRA      6996       1    2236    2237    1136     817
CTETRA      6997       1    2722    2723    2740     684
CTETRA      6998       1    1230     681    1240    1104
CTETRA      6999       1    3417     461    1547     258
CTETRA      7000       1    1235    3079    3080     326
CTETRA      7001       1    1134     469     866    1070
CTETRA      7002       1    3022     501     325     502
CTETRA      7003       1    1134     874     866     469
CTETRA      7004       1    2724    2735    2731     333
CTETRA      7005       1    2643    2647    2644     855
CTETRA      7006       1     769     333     335     336
CTETRA      7007       1    1073     335     681     770
CTETRA      7008       1    3138     874    3186     473
CTETRA      7009       1    3170    3184    1134    1152
CTETRA      7010       1    3028    3034     769     335
CTETRA      7011       1    1212     658    1222    1010
CTETRA      7012       1     800     991     992    1146
CTETRA      7013       1     325     502     684     332
CTETRA      7014       1    3054     621    3056      39
CTETRA      7015       1    3048    3054    3056      39
CTETRA      7016       1    4217    4218    1235    3080
CTETRA      7017       1    1204      39    1217      34
CTETRA      7018       1    2721     684    2740     678
CTETRA      7019       1    3440    1549     186     741
CTETRA      7020       1    2683    2685     815     812
CTETRA      7021       1    3440     833    3441     741
CTETRA      7022       1     625     893     211     210
CTETRA      7023       1    1601     909     964      69
CTETRA      7024       1    3504    1788    1549    1563
CTETRA      7025       1    4198    4199    1193    3015
CTETRA      7026       1    3268    3305     782     974
CTETRA      7027       1    3278    1031    1090    1032
CTETRA      7028       1    3335    3336    1161     168
CTETRA      7029       1    3305    3307     782     974
CTETRA      7030       1    3269    3307     974    1032
CTETRA      7031       1    4156    3307    3270    1032
CTETRA      7032       1    1333     782    1334     974
CTETRA      7033       1    1334     782    3307     974
CTETRA      7034       1    3398    3540    1645     155
CTETRA      7035       1    4026    4027    1980    3019
CTETRA      7036       1    4286    1175    1176     138
CTETRA      7037       1    1175    1177      55     138
CTETRA      7038       1     715     154     716     922
CTETRA      7039       1     155     395     154     922
CTETRA      7040       1     901     155     899     898
CTETRA      7041       1    3398     156    1518     155
CTETRA      7042       1     655    1063     449     450
CTETRA      7043       1    3051     203     657      42
CTETRA      7044       1    2723    2724     334     681
CTETRA      7045       1    1959    2989    2990    1125
CTETRA      7046       1    3683    1062    1874    1063
CTETRA      7047       1     174    1063    1096    1132
CTETRA      7048       1    4029    1964    3053    3062
CTETRA      7049       1    1874    1062     174    1063
CTETRA      7050       1    1958    2970    1959     209
CTETRA      7051       1    2701    2702    2721     678
CTETRA      7052       1    3683     449     655    1063
CTETRA      7053       1    2625    2648     854     337
CTETRA      7054       1    3060    1125     209      42
CTETRA      7055       1    2709    2718    2719     658
CTETRA      7056       1    1259     767    1266     977
CTETRA      7057       1    2626     854     855     341
CTETRA      7058       1    1273    1124    2644     855
CTETRA      7059       1    1264    2646    2645     854
CTETRA      7060       1    3051    3058    3052     203
CTETRA      7061       1    3026     769    3034    1097
CTETRA      7062       1    1212    1225    2709    1010
CTETRA      7063       1    2568    2645    2648     978
CTETRA      7064       1    4214    4215    1228    3078
CTETRA      7065       1    1228    3070    1108     656
CTETRA      7066       1    3004    3015    1064     487
CTETRA      7067       1      40      37      41      35
CTETRA      7068       1    3013    3014     876     485
CTETRA      7069       1    1218      40    1219      35
CTETRA      7070       1     211     893    1093     657
CTETRA      7071       1     961     488    1064     485
CTETRA      7072       1    2994    3004    1064     486
CTETRA      7073       1    2993    3013     876    1064
CTETRA      7074       1    3064     326    1108     790
CTETRA      7075       1    1670     474     475     445
CTETRA      7076       1    1667     413     982     491
CTETRA      7077       1    1058     474    1022     132
CTETRA      7078       1    3392    1513     475     910
CTETRA      7079       1    3420    1155    1159    1078
CTETRA      7080       1    1670     475     492     445
CTETRA      7081       1    2702     678     503     504
CTETRA      7082       1    3390    3544    3391    1672
CTETRA      7083       1    3390    1672    3391     475
CTETRA      7084       1    1022     474     177    1020
CTETRA      7085       1    1228    3070    3078    1108
CTETRA      7086       1    3543     475    1673     910
CTETRA      7087       1    3070    3071    1108     656
CTETRA      7088       1    2716    2720    2719      40
CTETRA      7089       1    1223    1224    3070     656
CTETRA      7090       1    4214    1228    1223    3070
CTETRA      7091       1     800    1125     991    1146
CTETRA      7092       1    1223    3070    1228     656
CTETRA      7093       1    3060    1125      42     622
CTETRA      7094       1    3095     807    1072     806
CTETRA      7095       1    2201    3124    2207     652
CTETRA      7096       1    2977    2980     952     623
CTETRA      7097       1    2977     952    1145    1146
CTETRA      7098       1    4053    4054    2192    3109
CTETRA      7099       1    1130    1145     952    1146
CTETRA      7100       1    1072     807     805     806
CTETRA      7101       1    2327    2760    2762    1115
CTETRA      7102       1    2178    3108    2192     804
CTETRA      7103       1    2816     490     622     623
CTETRA      7104       1    2968    2977     991    1146
CTETRA      7105       1    1874    1062    1057     174
CTETRA      7106       1    4291    2284    2282     207
CTETRA      7107       1    2487    2493    2494     228
CTETRA      7108       1     230     808    1068     632
CTETRA      7109       1    2328    2759     805     500
CTETRA      7110       1    1651     452    1652     528
CTETRA      7111       1    3313     230    1068     632
CTETRA      7112       1    2906     264     266     267
CTETRA      7113       1    1470    1471    1476     665
CTETRA      7114       1     638     639    1098     677
CTETRA      7115       1    2883    2884     303     302
CTETRA      7116       1    2595     302    2604     346
CTETRA      7117       1    2348     539    2382     300
CTETRA      7118       1    2328    2379    2378    1037
CTETRA      7119       1    2613    2624    1011     761
CTETRA      7120       1    1011     761     764    1071
CTETRA      7121       1    3247     463     993     644
CTETRA      7122       1    2201    3094    3124     652
CTETRA      7123       1    2865    2883     619     346
CTETRA      7124       1    2878    2879    1049     346
CTETRA      7125       1    2878    2900     764    1049
CTETRA      7126       1    1394     846    1099     847
CTETRA      7127       1    2307    2508    2507     433
CTETRA      7128       1    2367    2374     317     480
CTETRA      7129       1    2374    2383     317     480
CTETRA      7130       1    3113     318     638     482
CTETRA      7131       1    2192    3108     807     804
CTETRA      7132       1    2378    1037    2379     480
CTETRA      7133       1    3894    2377    2244    2384
CTETRA      7134       1    3131    3132     651    1038
CTETRA      7135       1     651     480    1038     478
CTETRA      7136       1     780     872     650    1038
CTETRA      7137       1    4057    3123    2207    3124
CTETRA      7138       1    2206    2207    2212     652
CTETRA      7139       1     484    1140     651     988
CTETRA      7140       1     780    1037     872    1038
CTETRA      7141       1    2379    1037     780     480
CTETRA      7142       1    1721     836      36     513
CTETRA      7143       1    1707     836     513     314
CTETRA      7144       1    1422    1423     320     321
CTETRA      7145       1    4185    1424    1407    3119
CTETRA      7146       1    2762     781    1115     280
CTETRA      7147       1    3283     219    3288     146
CTETRA      7148       1    4000    2873    2076    2875
CTETRA      7149       1     836     513     516     510
CTETRA      7150       1     240     250     241     242
CTETRA      7151       1    1736    1751     250     509
CTETRA      7152       1    2395     864     798     328
CTETRA      7153       1    1751    1752     249     509
CTETRA      7154       1    2167     145    2457     261
CTETRA      7155       1    2167    2168    2170     261
CTETRA      7156       1    2335    2336    2458     261
CTETRA      7157       1    3139    3140    3169    1152
CTETRA      7158       1    2438    1101     865     663
CTETRA      7159       1     900     261     169     133
CTETRA      7160       1    1730    1731    1746      82
CTETRA      7161       1    2687    2689    2688     935
CTETRA      7162       1    2683    2684    2688     812
CTETRA      7163       1    2001    2003     815     812
CTETRA      7164       1    3282    3283    3286    1123
CTETRA      7165       1    2911    1091    2912     415
CTETRA      7166       1    3283    3288    3286     146
CTETRA      7167       1    2656     878     711     565
CTETRA      7168       1    2681    2682     935     508
CTETRA      7169       1    4082    2174    3082    3287
CTETRA      7170       1     935     933     936     569
CTETRA      7171       1    2367    1050    2378     480
CTETRA      7172       1    1115     872     500    1151
CTETRA      7173       1     318    1050     317     480
CTETRA      7174       1    2400    2405    2404     871
CTETRA      7175       1    1472     667    1477     665
CTETRA      7176       1    1109    1144    1111     804
CTETRA      7177       1     638     946    1037     872
CTETRA      7178       1     638    1098    1050    1037
CTETRA      7179       1    2163     268    3152     192
CTETRA      7180       1    2419    2420    2436     661
CTETRA      7181       1    3282    3286     169    1123
CTETRA      7182       1    1135    1136    1149     817
CTETRA      7183       1     668     608     822     223
CTETRA      7184       1    4168    1499    1500    3156
CTETRA      7185       1    1278     601    1282     603
CTETRA      7186       1    1499    1500    3156     799
CTETRA      7187       1    3145    3146    3162     328
CTETRA      7188       1    3139    3140    1152     871
CTETRA      7189       1    2340    2341    2403     866
CTETRA      7190       1    2340    2358    2357    1070
CTETRA      7191       1    3552    1654    1656     545
CTETRA      7192       1    1282     601    1283     602
CTETRA      7193       1    3823    2307    2511     532
CTETRA      7194       1    2347    2348    2382     300
CTETRA      7195       1    3220    3225    3221     307
CTETRA      7196       1    4065    2229    2228    3178
CTETRA      7197       1    4180    4181    1458    3196
CTETRA      7198       1     668     822     608     669
CTETRA      7199       1    4064    2228    3088    3178
CTETRA      7200       1    2637     606    2642     601
CTETRA      7201       1    2633     606     822     669
CTETRA      7202       1    2633     927     606     669
CTETRA      7203       1    3037    1000    1018     336
CTETRA      7204       1    2345    2362    2346     753
CTETRA      7205       1    1459    1465    1464     301
CTETRA      7206       1    1470    1476    3204     665
CTETRA      7207       1    3034    3036    1097     336
CTETRA      7208       1    1018     344     699    1097
CTETRA      7209       1    3036    3037    1018     336
CTETRA      7210       1    3177     752     756     757
CTETRA      7211       1    2625     337     854     338
CTETRA      7212       1    4172    4173    1504    3137
CTETRA      7213       1    2570     699     344    1097
CTETRA      7214       1    1018     699     344    1012
CTETRA      7215       1    3146     871     799     328
CTETRA      7216       1     344    1012     345    1013
CTETRA      7217       1    2341    2399    2403     866
CTETRA      7218       1    4182    1457    1452    3195
CTETRA      7219       1    2570    2673     344     699
CTETRA      7220       1    3169    3170    3188    1152
CTETRA      7221       1    2234    1136    1133     817
CTETRA      7222       1    2241     809     611     787
CTETRA      7223       1    2673    2674     344     699
CTETRA      7224       1    3559    3645    3644     459
CTETRA      7225       1     576     705    1139    1138
CTETRA      7226       1    2350    2360    2359     538
CTETRA      7227       1    3172    3176    3173    1114
CTETRA      7228       1    4178    1470    1476    3204
CTETRA      7229       1    3464    1593    1592    1137
CTETRA      7230       1    2374    2375    2383     480
CTETRA      7231       1    2359    2360    2361     538
CTETRA      7232       1    3201     671    3204     665
CTETRA      7233       1    3435    2257     705    1139
CTETRA      7234       1    3436     705    2253     706
CTETRA      7235       1     470     472     540     471
CTETRA      7236       1    2374    2378    2379     480
CTETRA      7237       1    2349    2372    2364     539
CTETRA      7238       1    1424    1428    1431     482
CTETRA      7239       1    2253     705     709     706
CTETRA      7240       1      90     583    1139      85
CTETRA      7241       1    1763     576      83      84
CTETRA      7242       1     957     706     577     707
CTETRA      7243       1    1459    1460    1465     300
CTETRA      7244       1    3686    1828    3687     536
CTETRA      7245       1    1821     181     179     291
CTETRA      7246       1    3214    3237    3238     902
CTETRA      7247       1    1804    1571     291     498
CTETRA      7248       1    1870    1871    1886     858
CTETRA      7249       1    3515    1571    1572     291
CTETRA      7250       1    3515    1572    1806     291
CTETRA      7251       1    3826     274     273     352
CTETRA      7252       1    3455    1571     497     291
CTETRA      7253       1    1806     181    1821     291
CTETRA      7254       1    3455     497     181     291
CTETRA      7255       1    4129    4130    1399    3217
CTETRA      7256       1    1806    1572     181     291
CTETRA      7257       1    2661    1113     349     339
CTETRA      7258       1    2837    3228    3218     759
CTETRA      7259       1    1113     897    1118     339
CTETRA      7260       1    3647    3648    2288      26
CTETRA      7261       1    2049    2667    2052     339
CTETRA      7262       1     723      63     279     306
CTETRA      7263       1    2507    2508    2526     433
CTETRA      7264       1    2527     841    2529     842
CTETRA      7265       1    1118     897    1143    1117
CTETRA      7266       1    2526     433     691     687
CTETRA      7267       1    1135     754    1133     758
CTETRA      7268       1    2342    1135    2356    1133
CTETRA      7269       1    2341    1135    2342    1149
CTETRA      7270       1    3261    3264    3263     794
CTETRA      7271       1    2341    1135     866    1070
CTETRA      7272       1    1392    2510    1099     842
CTETRA      7273       1    2508    2509    2528     691
CTETRA      7274       1    1868      58    1883    1002
CTETRA      7275       1    1374    2565    2566     972
CTETRA      7276       1     824     533     433     687
CTETRA      7277       1    2521    2529    2527     841
CTETRA      7278       1    3246    3247    3261     463
CTETRA      7279       1    3235    3236    3259     971
CTETRA      7280       1     426     391     312     435
CTETRA      7281       1    3256    3260    3259     637
CTETRA      7282       1    1361    2567    1363    1142
CTETRA      7283       1    2499    2524    2500     690
CTETRA      7284       1      54     440     289      71
CTETRA      7285       1    1869     289    1870      56
CTETRA      7286       1    2532    2540    2533     717
CTETRA      7287       1    1868    1025      54      58
CTETRA      7288       1    2122    3216    2125     566
CTETRA      7289       1    3236    3237    3261     644
CTETRA      7290       1     439     440     436     290
CTETRA      7291       1    3250    3251    3254     462
CTETRA      7292       1      18      23      21      14
CTETRA      7293       1    3051     203     211     657
CTETRA      7294       1    1222     656    1108     658
CTETRA      7295       1    3245    3255    3246     793
CTETRA      7296       1    2115    2116    2120     796
CTETRA      7297       1    2121    2124    2123     908
CTETRA      7298       1    1212     658    2719      40
CTETRA      7299       1    2710     503    2718    1010
CTETRA      7300       1    3050      42     657      41
CTETRA      7301       1    2547    2548    2556     903
CTETRA      7302       1    1220    2719    2707      40
CTETRA      7303       1    3236    3261    3259     644
CTETRA      7304       1    2700    2718     503     658
CTETRA      7305       1    3214     902    3238     848
CTETRA      7306       1    2546    2547    2555     643
CTETRA      7307       1    1359    1370    1373     637
CTETRA      7308       1    4137    1375    1378    3234
CTETRA      7309       1    2716      40     658     657
CTETRA      7310       1    2700     790    2741    1093
CTETRA      7311       1    2162     900     192     133
CTETRA      7312       1    3050     657    3063      41
CTETRA      7313       1    1487    3158    1500     659
CTETRA      7314       1    1444    1447    1446    1090
CTETRA      7315       1    3626    1669    3627     889
CTETRA      7316       1    3063    1093     656     657
CTETRA      7317       1    3790    3791    1344    2468
CTETRA      7318       1    1863     412     383     385
CTETRA      7319       1    1213     656     658      40
CTETRA      7320       1    2080    2484    2086     252
CTETRA      7321       1    4157    1443    3270    3278
CTETRA      7322       1    3063    1108    3071     656
CTETRA      7323       1    1714     747     236     742
CTETRA      7324       1    4166    3157    1500    3158
CTETRA      7325       1    1713    1714     236     742
CTETRA      7326       1    1730    1745      78      82
CTETRA      7327       1    3289    3290    3291     197
CTETRA      7328       1    2089     230    2092     234
CTETRA      7329       1    2090     197    3292     199
CTETRA      7330       1    2167    2457     145     123
CTETRA      7331       1     236     147      78     387
CTETRA      7332       1    1729      78     236     747
CTETRA      7333       1     964      80      82     238
CTETRA      7334       1      80      82     238      77
CTETRA      7335       1    2454    2459    2457     123
CTETRA      7336       1    1715     746     747     114
CTETRA      7337       1    2096     633     587     632
CTETRA      7338       1    3043    3045    3047     990
CTETRA      7339       1    2465    2467    2466     698
CTETRA      7340       1    3044    3045     990     614
CTETRA      7341       1     999    1000    1001     998
CTETRA      7342       1    1332    1333    1441     698
CTETRA      7343       1    2465    1052    2468     698
CTETRA      7344       1     999     990     614     501
CTETRA      7345       1    1982     999     990     614
CTETRA      7346       1    3158    3161    3160     659
CTETRA      7347       1    3038    3044     990     614
CTETRA      7348       1    4156    4157    1443    3270
CTETRA      7349       1    1339     945    2444     428
CTETRA      7350       1    3206    3248    3207     714
CTETRA      7351       1    2333    2462    2464    1030
CTETRA      7352       1    1343    1345    1344    1052
CTETRA      7353       1     218     197     198     975
CTETRA      7354       1    2089    2102    2092     231
CTETRA      7355       1    2763     280     805     804
CTETRA      7356       1    1072     806     805     280
CTETRA      7357       1    2113     460    2486     664
CTETRA      7358       1    2473    2480    2479     945
CTETRA      7359       1    2091    2092    2098     229
CTETRA      7360       1     500    1144    1151    1150
CTETRA      7361       1    1115     500     805    1151
CTETRA      7362       1    3209    3210    3311     311
CTETRA      7363       1    2759     805     500    1144
CTETRA      7364       1    2086    2484    2485     252
CTETRA      7365       1    2757    1109    2761    1144
CTETRA      7366       1    2098    2102    2101     231
CTETRA      7367       1    3313    3317    3316     231
CTETRA      7368       1    2760     805    2763     280
CTETRA      7369       1    1352     762     783     945
CTETRA      7370       1    3311    3315    3314     311
CTETRA      7371       1    2328    2760    1115     805
CTETRA      7372       1    3269    3307    3305     974
CTETRA      7373       1    1409    2371    2372     321
CTETRA      7374       1    1335    1131    3320     763
CTETRA      7375       1    3130    3132     318     478
CTETRA      7376       1    3091     319    3092     299
CTETRA      7377       1    3114     319    3130     318
CTETRA      7378       1    2532     714    1142    1127
CTETRA      7379       1     388    1027     390     126
CTETRA      7380       1    3466     390    3467     126
CTETRA      7381       1    2110     460     885     967
CTETRA      7382       1    1901     389     405     126
CTETRA      7383       1    1355    2443    2444     945
CTETRA      7384       1    2470     808    2487     354
CTETRA      7385       1    3533    1582    1909    1588
CTETRA      7386       1    3312    3318    3313     632
CTETRA      7387       1    2481     252    2482     587
CTETRA      7388       1    2289     778     426     390
CTETRA      7389       1    1901     405    1916     126
CTETRA      7390       1    3325    3328    3326     693
CTETRA      7391       1    2445    2541    2542     428
CTETRA      7392       1    1335    3319    1341     763
CTETRA      7393       1    3320    3330    3331     763
CTETRA      7394       1     388     390     389     126
CTETRA      7395       1      60    1027     126     232
CTETRA      7396       1    3387    3546    3388    1668
CTETRA      7397       1    2127    2130     351     316
CTETRA      7398       1     778     405     389     390
CTETRA      7399       1    2292     405     778     390
CTETRA      7400       1    2297     983     361     719
CTETRA      7401       1    3466    1595     405     126
CTETRA      7402       1    1799    1814    1112    1074
CTETRA      7403       1    1529     829    1530     987
CTETRA      7404       1    1818    1819     178     498
CTETRA      7405       1     207    1063    1096     450
CTETRA      7406       1    1818    1834    1833     178
CTETRA      7407       1    3387    3388    1507     827
CTETRA      7408       1    3466     405    2292     390
CTETRA      7409       1     470     540     472     469
CTETRA      7410       1    3388    3546    3545    1668
CTETRA      7411       1     307     533    1046     313
CTETRA      7412       1    1878     720     412     819
CTETRA      7413       1    3187    3199     470     540
CTETRA      7414       1    2293     889     721     130
CTETRA      7415       1    3404    3405    1509     437
CTETRA      7416       1    3817    2821    3827     352
CTETRA      7417       1     394      44      45     535
CTETRA      7418       1    3171    3197     469     766
CTETRA      7419       1    1809    1579    1810     588
CTETRA      7420       1    3170    1134    3171     469
CTETRA      7421       1    3170    3188    1134     469
CTETRA      7422       1    3188     470     874     469
CTETRA      7423       1     429     824    1048     700
CTETRA      7424       1    2306    2307    2822     432
CTETRA      7425       1    3474     719    1584     190
CTETRA      7426       1    3401    1512    1508    1008
CTETRA      7427       1    1402    1406     353     278
CTETRA      7428       1     274     279     272     432
CTETRA      7429       1    1501     470     472     473
CTETRA      7430       1    3390     492    1670     475
CTETRA      7431       1    3655    4117    3656     880
CTETRA      7432       1    1489    1501     470     472
CTETRA      7433       1    3409    3410    1525     575
CTETRA      7434       1    1778    1779    1793    1138
CTETRA      7435       1    1766     249    1767    1120
CTETRA      7436       1    1794    1795    1552     640
CTETRA      7437       1    4273    3612    4274    1622
CTETRA      7438       1    1490    2414    2413     594
CTETRA      7439       1    1489     472     470     471
CTETRA      7440       1    4269    3619    1630     709
CTETRA      7441       1    2339     666     472     667
CTETRA      7442       1     472     866     874     469
CTETRA      7443       1     470     874     472     473
CTETRA      7444       1    2339     472    2414     667
CTETRA      7445       1    1142     646     863    1147
CTETRA      7446       1    3206     863    3248     714
CTETRA      7447       1    3344    3830     127     786
CTETRA      7448       1    2834    2836    2835    1056
CTETRA      7449       1    3248     863    3259     993
CTETRA      7450       1    4301    3586    3585     151
CTETRA      7451       1    3670    3671    2834     152
CTETRA      7452       1    1105     637     863     993
CTETRA      7453       1    3259     863     637     993
CTETRA      7454       1    3627     889    1669     982
CTETRA      7455       1    2700     503     790    1093
CTETRA      7456       1     625     211     893    1093
CTETRA      7457       1    1222    1228    1108     656
CTETRA      7458       1    4301    3585    4265     151
CTETRA      7459       1    2701     503    2702     678
CTETRA      7460       1    1108     326     503     790
CTETRA      7461       1    3568    3631    3630     361
CTETRA      7462       1    3474    1584    1582     190
CTETRA      7463       1    2701    2739     503     678
CTETRA      7464       1    2700     658     503    1093
CTETRA      7465       1    1860    1861     912     537
CTETRA      7466       1    3063    1108     656    1093
CTETRA      7467       1    3568    3629    1667     361
CTETRA      7468       1    3683    1874    1889    1063
CTETRA      7469       1    2208    2209    2215     410
CTETRA      7470       1    1889    1132     174    1017
CTETRA      7471       1    1845    1861    1860     537
CTETRA      7472       1     361     819     748     749
CTETRA      7473       1    3476    1580    1583     911
CTETRA      7474       1    2204     409    2429     406
CTETRA      7475       1    1667     361     982     413
CTETRA      7476       1    3472    3473    1588     130
CTETRA      7477       1    3879    2422    2210    2429
CTETRA      7478       1    2215     867     410     327
CTETRA      7479       1    2279     111    1005     791
CTETRA      7480       1    3298    3331     762     763
CTETRA      7481       1    2209     327     410     406
CTETRA      7482       1    3577    3578    2151     980
CTETRA      7483       1    2210    2422    2216     406
CTETRA      7484       1    1148     902     689     351
CTETRA      7485       1    2517    1048     686    1019
CTETRA      7486       1    1899    1900    1915     126
CTETRA      7487       1    2421    2429     409     406
CTETRA      7488       1    2209    2216     327     406
CTETRA      7489       1    2519     887    1048    1019
CTETRA      7490       1    2838    3219    3228     759
CTETRA      7491       1    2421     327    2422     406
CTETRA      7492       1    4147    1340    1341    3298
CTETRA      7493       1    3220    3227     272     434
CTETRA      7494       1    1887    1903    1902     647
CTETRA      7495       1    3650    4124    4123     873
CTETRA      7496       1    1913    1914    1581     225
CTETRA      7497       1    2421     409     327     406
CTETRA      7498       1    2216    2422     327     406
CTETRA      7499       1    2364    2383    2382     479
CTETRA      7500       1    2382     539     479     478
CTETRA      7501       1    4188    3115    1429    3118
CTETRA      7502       1     317     320     482     483
CTETRA      7503       1    3364    3365    1173     511
CTETRA      7504       1    1719      36    1026     366
CTETRA      7505       1    1453     299    1455     539
CTETRA      7506       1    3976    1619    3365    1621
CTETRA      7507       1    3579    1642    3580      48
CTETRA      7508       1    2364     479     539     321
CTETRA      7509       1    2364    2365     479     321
CTETRA      7510       1    3425    3426    1536     775
CTETRA      7511       1    1456    2372    2349     539
CTETRA      7512       1    3365    1619    3366     512
CTETRA      7513       1    1720    1721    1736      36
CTETRA      7514       1    1349    3309     783     762
CTETRA      7515       1    1350    3309    3308     783
CTETRA      7516       1    3364    1173    1171     511
CTETRA      7517       1    3300    3303     783     784
CTETRA      7518       1    3326    3329     984     693
CTETRA      7519       1    3973    3371    3370    1613
CTETRA      7520       1    3604    2265    2263      57
CTETRA      7521       1    2252    2387    2386     760
CTETRA      7522       1    3889    2387    2252     760
CTETRA      7523       1    1692     314    1707     597
CTETRA      7524       1    3889    2251    2344     760
CTETRA      7525       1     611     890    1114     787
CTETRA      7526       1    1706    1722    1721     836
CTETRA      7527       1    3427    3428    1532     515
CTETRA      7528       1    3177    3180    3179     757
CTETRA      7529       1    1690    1706    1083     597
CTETRA      7530       1    1616    1617    1618     240
CTETRA      7531       1    3429     170    1177     138
CTETRA      7532       1     753     760     755     757
CTETRA      7533       1    1723     212    1738    1095
CTETRA      7534       1    3973    3370    3974    1615
CTETRA      7535       1    3336    3337    1162     164
CTETRA      7536       1    1114     753     752     787
CTETRA      7537       1     370     378     377     828
CTETRA      7538       1     368     378     370     986
CTETRA      7539       1    1075     370     821     375
CTETRA      7540       1     246     247     243     363
CTETRA      7541       1    3422    1156    1157     116
CTETRA      7542       1    3559    3646    3645     459
CTETRA      7543       1    3422    1153    3423     590
CTETRA      7544       1     930     370     369     821
CTETRA      7545       1     368     378    1086     375
CTETRA      7546       1    1831     370    1075     377
CTETRA      7547       1     379     378     381     375
CTETRA      7548       1     945     428     763     693
CTETRA      7549       1    1365     609    1142     646
CTETRA      7550       1    2473    2476    1066     945
CTETRA      7551       1     783    1066     945     984
CTETRA      7552       1    3326     984     762     693
CTETRA      7553       1    2473    1066    2480     945
CTETRA      7554       1    1339    1351    1355     945
CTETRA      7555       1    3325    3326    3331     763
CTETRA      7556       1    3296     783    3302     762
CTETRA      7557       1      99     466     101     100
CTETRA      7558       1    1351     762    1352     945
CTETRA      7559       1    2444    2479    2445     693
CTETRA      7560       1    3419    1164    1155    1094
CTETRA      7561       1    1339     762    1351     945
CTETRA      7562       1    2446    2483     664     252
CTETRA      7563       1    3302     783    3309     762
CTETRA      7564       1    1340    3298    1349     762
CTETRA      7565       1    3112    3118    3117     638
CTETRA      7566       1    2084     311     664     252
CTETRA      7567       1    2447     460    2540     664
CTETRA      7568       1    1191    1192    1196     487
CTETRA      7569       1    2483    2484     664     252
CTETRA      7570       1    2447    2486     460     664
CTETRA      7571       1    1180    1190     962     485
CTETRA      7572       1    2751    2752    2789    1076
CTETRA      7573       1    2081    2084     311     664
CTETRA      7574       1    1188    1189    1191     485
CTETRA      7575       1    2080    2084     664     252
CTETRA      7576       1     785    1068     354     632
CTETRA      7577       1    2083    3314    3315     311
CTETRA      7578       1    3209     885    3210     311
CTETRA      7579       1    2787    2798     489     505
CTETRA      7580       1    2082    3210     885     311
CTETRA      7581       1    3209    3327     885     311
CTETRA      7582       1    3325     693     763    1003
CTETRA      7583       1    1195    3009    3007     958
CTETRA      7584       1    1187    1198    1195     958
CTETRA      7585       1     505     958     506     883
CTETRA      7586       1    4189    1430    3115    3116
CTETRA      7587       1    2995    3006     486     958
CTETRA      7588       1    1209    1211    1210     490
CTETRA      7589       1    2695    2807    2810    1130
CTETRA      7590       1    2974    2975     958     506
CTETRA      7591       1     161     167       6     160
CTETRA      7592       1    3337    3338     164      98
CTETRA      7593       1    1160     928     324     257
CTETRA      7594       1    4209    3048    1215    3054
CTETRA      7595       1    3336     164    1162     168
CTETRA      7596       1    1160    1162     164     928
CTETRA      7597       1     400     960     932     408
CTETRA      7598       1    1215    3054    3048      39
CTETRA      7599       1    1205     621    3054      39
CTETRA      7600       1    3737    3738    1211    2813
CTETRA      7601       1    1204    1215    1217      39
CTETRA      7602       1    3338     324     164      98
CTETRA      7603       1    2328    1115    1037     500
CTETRA      7604       1    1204    1209     621     490
CTETRA      7605       1    4207    3054    1205    3055
CTETRA      7606       1    3738    1210    1211    2813
CTETRA      7607       1     805     807    1144     804
CTETRA      7608       1    3740    2800    1185    2812
CTETRA      7609       1    3095    3096    1072     807
CTETRA      7610       1    3101    3105    1111     807
CTETRA      7611       1    1115    1072     872    1151
CTETRA      7612       1    2716    2719     658      40
CTETRA      7613       1    1216    3048    3075      35
CTETRA      7614       1    3070    3072    3071     656
CTETRA      7615       1    4214    1228    3070    3078
CTETRA      7616       1    3097     946    1151    1150
CTETRA      7617       1    3084    1122     976    1119
CTETRA      7618       1    3084     976    3085    1119
CTETRA      7619       1    4213    1223    1224    3070
CTETRA      7620       1    1224    3074    3070     656
CTETRA      7621       1    3072    3074    3073      37
CTETRA      7622       1    3734    2691    1219    2707
CTETRA      7623       1    1036    1101    1119     663
CTETRA      7624       1    4150    3308    1350    3309
CTETRA      7625       1    2437    1122    2439    1119
CTETRA      7626       1    4211    4212    1214    3073
CTETRA      7627       1    1214    3074    1224      37
CTETRA      7628       1    1212    1213     658      40
CTETRA      7629       1    3165     976     661     663
CTETRA      7630       1    1992    1995     518     696
CTETRA      7631       1    4148    1349    1340    3298
CTETRA      7632       1    1474    1480     865    1033
CTETRA      7633       1    1487    3158     869    1033
CTETRA      7634       1    1036     869     865     663
CTETRA      7635       1    3085     976    3165     663
CTETRA      7636       1    3076    3077    3079     326
CTETRA      7637       1    3383    1528     368     986
CTETRA      7638       1    1662     369     368     260
CTETRA      7639       1    2722    2728    2723     684
CTETRA      7640       1    1232    1233    1238     332
CTETRA      7641       1    1229    1240    1237    1104
CTETRA      7642       1     112     820     819     749
CTETRA      7643       1    1244    1252    1245     602
CTETRA      7644       1    3384    1664     262     986
CTETRA      7645       1    2912     415    1091     565
CTETRA      7646       1    3383     368    1662     986
CTETRA      7647       1    3709    1252    1244    2639
CTETRA      7648       1    1278    1282    1280     603
CTETRA      7649       1    3707    1283    2636    2640
CTETRA      7650       1    2915    2918    2920     603
CTETRA      7651       1    3412    1637     458     598
CTETRA      7652       1    3382    3549    1662    1086
CTETRA      7653       1    1462    1468    1101    1035
CTETRA      7654       1    2462    2463    1030     464
CTETRA      7655       1    1333     698     974    1032
CTETRA      7656       1    1333     698     782     974
CTETRA      7657       1    1247    1262    1261     856
CTETRA      7658       1    1236    3080     325     332
CTETRA      7659       1    4232    4233    1250    2945
CTETRA      7660       1    3715    3716    1273    2644
CTETRA      7661       1    2332    1089    2333    1030
CTETRA      7662       1    1052     782     698     975
CTETRA      7663       1    2463     698    1030     464
CTETRA      7664       1    2335    1121    2439    1122
CTETRA      7665       1    1089    1031    1090     464
CTETRA      7666       1    1439    1445    3277    1069
CTETRA      7667       1    4226    1267    1266     977
CTETRA      7668       1    2645    2646    2647     854
CTETRA      7669       1    1258    2645    2568     978
CTETRA      7670       1    2333    2462    1089    1121
CTETRA      7671       1    2333    1089    2442    1121
CTETRA      7672       1    2439    2442     953    1121
CTETRA      7673       1    2462    1089    1121     464
CTETRA      7674       1    2644    2647    2646     855
CTETRA      7675       1    2853    2854    3036     694
CTETRA      7676       1    4224    3029    1260    3031
CTETRA      7677       1    2462     464    1121    1123
CTETRA      7678       1     212     731    1095     737
CTETRA      7679       1    2266     839     446    1059
CTETRA      7680       1    2585    1126    2586     618
CTETRA      7681       1     738     509     731    1079
CTETRA      7682       1     731     840    1079     737
CTETRA      7683       1    1607    1609     447     400
CTETRA      7684       1    1608      55    1613     840
CTETRA      7685       1    2575    2590    2589     570
CTETRA      7686       1    2517    2519    1048    1019
CTETRA      7687       1    2073    2871    2875    1006
CTETRA      7688       1    2318     495     887    1019
CTETRA      7689       1    2503    2517     686    1019
CTETRA      7690       1    1297    1298    1301     618
CTETRA      7691       1    4244    1299    2921     851
CTETRA      7692       1    2863    2881    2882     851
CTETRA      7693       1    4246    1308    1305    2880
CTETRA      7694       1    2149     495    2317    1019
CTETRA      7695       1    2317     495    2318    1019
CTETRA      7696       1    1297    1301     303     618
CTETRA      7697       1    3281    1090    1031     464
CTETRA      7698       1    1295     851     570     853
CTETRA      7699       1    3700    1294    1297    2587
CTETRA      7700       1    3222     533     700     687
CTETRA      7701       1    3274    3281    3280    1090
CTETRA      7702       1    3268    3281     974     464
CTETRA      7703       1    2865    2866    2879     884
CTETRA      7704       1    2868    2870    2869     832
CTETRA      7705       1    3274    1090    3278    1031
CTETRA      7706       1    3690    3691    1324    2325
CTETRA      7707       1    1446    1090    1089    1032
CTETRA      7708       1    1011     764     761     297
CTETRA      7709       1    1643     442    1646     634
CTETRA      7710       1    3021     625     614     501
CTETRA      7711       1    2878    2884    2883     302
CTETRA      7712       1     997     357     578     577
CTETRA      7713       1    1975     625    3068     210
CTETRA      7714       1    3019    3067    3068     625
CTETRA      7715       1    4255    4256    1329    2836
CTETRA      7716       1    3581    3582    2268      67
CTETRA      7717       1    1980     614     625     615
CTETRA      7718       1    1259    1260     767     768
CTETRA      7719       1    1601     909     399     964
CTETRA      7720       1    1975    1976    1980     615
CTETRA      7721       1    1339    1340    1351     762
CTETRA      7722       1    3020    3021     625     614
CTETRA      7723       1    1980    3046     625     614
CTETRA      7724       1    4225    4226    1266    3029
CTETRA      7725       1    3020     625    3046     614
CTETRA      7726       1    1260    3029     767     768
CTETRA      7727       1    3125    3126     650    1072
CTETRA      7728       1    3096    3126    1072    1151
CTETRA      7729       1    3128     638     318    1038
CTETRA      7730       1    4108    2131    2128    3233
CTETRA      7731       1    3795    1355    1354    2443
CTETRA      7732       1    2243     809     371     612
CTETRA      7733       1     319     539     299     478
CTETRA      7734       1    1336    1364    1368    1131
CTETRA      7735       1    3208     885    3327     717
CTETRA      7736       1    1336    1339    1338     428
CTETRA      7737       1    3324    1003    1131    1127
CTETRA      7738       1    3090     610    3091     359
CTETRA      7739       1    1388    1389    1391     842
CTETRA      7740       1    3540    1675    1644     155
CTETRA      7741       1    3809    3810    1383    2520
CTETRA      7742       1    3089    3090    1114     610
CTETRA      7743       1    3133     610    3136    1140
CTETRA      7744       1    3089     611    3136     610
CTETRA      7745       1     272     432     434     759
CTETRA      7746       1    2522    2528    2529     691
CTETRA      7747       1    1397    1400    1399     847
CTETRA      7748       1    4108    4109    2131    3231
CTETRA      7749       1    3236    3240    3238     973
CTETRA      7750       1    2306    2508     433     691
CTETRA      7751       1    3090    1114     610     359
CTETRA      7752       1    3445    1406    1405     352
CTETRA      7753       1    3102    3107     194     193
CTETRA      7754       1    2848    3100     995    1102
CTETRA      7755       1    3102     995    3106     193
CTETRA      7756       1    2186    2187    3106    1110
CTETRA      7757       1    2750     188     996     189
CTETRA      7758       1    1897     441      59     227
CTETRA      7759       1    4127    4128    1404    2837
CTETRA      7760       1     995     194     188     193
CTETRA      7761       1    3448    3576    4289    3658
CTETRA      7762       1    2547     641    2556     643
CTETRA      7763       1    4126    1402    4116    2839
CTETRA      7764       1    2179    1109     188     193
CTETRA      7765       1    3262     794    3264     566
CTETRA      7766       1    3219     272    3227     759
CTETRA      7767       1    2757    1103    2768     674
CTETRA      7768       1    2848     995     673    1102
CTETRA      7769       1    1109    1110     995     193
CTETRA      7770       1    2751     877    2752    1045
CTETRA      7771       1     184    1039     732     733
CTETRA      7772       1    1417    1420    1419     675
CTETRA      7773       1    1192    1194    1196     487
CTETRA      7774       1     184    1060     732     185
CTETRA      7775       1     732    1039     813    1077
CTETRA      7776       1    1411     679    1044     924
CTETRA      7777       1    3237    3264    3261     644
CTETRA      7778       1    1769    1039    1770     733
CTETRA      7779       1    1784    1560    1077     733
CTETRA      7780       1    1428    1429    1432     638
CTETRA      7781       1    3444    4287    1561    1077
CTETRA      7782       1    3673    1561     797    1077
CTETRA      7783       1    1784    1560    1561    1077
CTETRA      7784       1    3998    3999    2073    2875
CTETRA      7785       1    4185    4186    1424    3119
CTETRA      7786       1    4184    4185    1407    3119
CTETRA      7787       1    1429    1432     638     639
CTETRA      7788       1    3758    1434    2369    2373
CTETRA      7789       1     946     680     683     677
CTETRA      7790       1    1430     946    3116     683
CTETRA      7791       1    2758     680    2778    1103
CTETRA      7792       1    3128     318    3129    1038
CTETRA      7793       1    1445    1448    1447    1090
CTETRA      7794       1     638     946    1098    1037
CTETRA      7795       1    2158     219    2165     146
CTETRA      7796       1    3268    3269    3305     974
CTETRA      7797       1    4181    3194    1452    3196
CTETRA      7798       1    3111    3116     946     683
CTETRA      7799       1    3127     638    3128     872
CTETRA      7800       1    3097    3111     946     683
CTETRA      7801       1    2489     198    2491     234
CTETRA      7802       1    2452     218    2490     198
CTETRA      7803       1    2472    2489     811     198
CTETRA      7804       1    4180    1458    1464    3191
CTETRA      7805       1    2452     218     198     975
CTETRA      7806       1    2478    1067     465     944
CTETRA      7807       1    2347    2361    2360     538
CTETRA      7808       1    1452    1457    1455     299
CTETRA      7809       1     811     198     199     465
CTETRA      7810       1    3295    3296     984     944
CTETRA      7811       1    3191    3193     299     301
CTETRA      7812       1    3769    1478    2338     667
CTETRA      7813       1    3267    3290     197     199
CTETRA      7814       1    3299     230     199     465
CTETRA      7815       1    3266    3299     230     199
CTETRA      7816       1    1940    1948    2988     951
CTETRA      7817       1    2997    2998    3003     777
CTETRA      7818       1    1501     472     594     473
CTETRA      7819       1    1148     689     902     692
CTETRA      7820       1    3768    1478    1472    2350
CTETRA      7821       1    1489     667     472     471
CTETRA      7822       1    1472    2350    1478     667
CTETRA      7823       1    2340    2415     472     594
CTETRA      7824       1    3767    3768    1472    2350
CTETRA      7825       1    1488     470    3198     471
CTETRA      7826       1    3187     470    3188     469
CTETRA      7827       1    3481    1681    1541    1547
CTETRA      7828       1    3461     966    1573    1065
CTETRA      7829       1     750     966     626      51
CTETRA      7830       1    4041    1948    2987    2988
CTETRA      7831       1     888     966     941      51
CTETRA      7832       1    3461    1510     626     914
CTETRA      7833       1    1510     630     626     914
CTETRA      7834       1     888     914     626     438
CTETRA      7835       1    3461     626    1506     966
CTETRA      7836       1    1506     626     750     966
CTETRA      7837       1    3201    3203    3202     471
CTETRA      7838       1    2452     198    2472     465
CTETRA      7839       1    2394    2395    2419     864
CTETRA      7840       1    3139    1100     600     871
CTETRA      7841       1    2436    2437    2438     976
CTETRA      7842       1     145     219     218     464
CTETRA      7843       1    2489    2495     811     234
CTETRA      7844       1    2784    2785     772    1076
CTETRA      7845       1    1500     659     799     660
CTETRA      7846       1    2793     488    2794     489
CTETRA      7847       1    2753     961    2754     488
CTETRA      7848       1    3004     486    3005     487
CTETRA      7849       1    4167    4168    1500    3157
CTETRA      7850       1    2994     486    1064    1141
CTETRA      7851       1    1480    1487    1486     659
CTETRA      7852       1    3403    3404    1509     628
CTETRA      7853       1    1188     961    1190     485
CTETRA      7854       1    3654    4119    4118     308
CTETRA      7855       1    3403    3824    3404     844
CTETRA      7856       1    2506    2514    2519    1048
CTETRA      7857       1    3001     673     994    1045
CTETRA      7858       1    3404    3824    3823     844
CTETRA      7859       1    2786     488    2793     489
CTETRA      7860       1    3457     157    1569     140
CTETRA      7861       1    3456    1517    1516     140
CTETRA      7862       1    2753    2792     961     488
CTETRA      7863       1    1352     783    1353     943
CTETRA      7864       1    2474    2475    1066     943
CTETRA      7865       1     179     181     497     291
CTETRA      7866       1    2475    2480    1066    1067
CTETRA      7867       1    1339     762     945     763
CTETRA      7868       1    3454    3455    1571     497
CTETRA      7869       1     753     787     760     757
CTETRA      7870       1    4074    2202    2208    3150
CTETRA      7871       1    1349    1350    1352     783
CTETRA      7872       1    1349    1352    1351     762
CTETRA      7873       1    3297    3302    3309     762
CTETRA      7874       1    2571    2738    2735     333
CTETRA      7875       1    3037    1000    3042    1018
CTETRA      7876       1    1811    1573    1812    1065
CTETRA      7877       1    3560    3644    3643     448
CTETRA      7878       1    2674     345     344     697
CTETRA      7879       1    1923     345    1924     697
CTETRA      7880       1    1991     697    1994     696
CTETRA      7881       1    2202    2208    3150     410
CTETRA      7882       1    3036    1018     694    1097
CTETRA      7883       1    2345     753     760     755
CTETRA      7884       1    3412    3556    1637    1640
CTETRA      7885       1    2344    2353    2363     755
CTETRA      7886       1     752     755     756     757
CTETRA      7887       1    3172    3177     752     756
CTETRA      7888       1     493     700     686     329
CTETRA      7889       1    3172     756     752     766
CTETRA      7890       1    2202    3150    3143     410
CTETRA      7891       1    2984    2986     950     951
CTETRA      7892       1     472     866     469    1070
CTETRA      7893       1     540     666     469     766
CTETRA      7894       1    2363    1133     754     755
CTETRA      7895       1    3428    1543    1532     314
CTETRA      7896       1    2357     754    1135    1070
CTETRA      7897       1    2399     866    1149    1100
CTETRA      7898       1    1135    1133    1136     817
CTETRA      7899       1    3491    3492    1692    1532
CTETRA      7900       1    3492    3493    1693    1543
CTETRA      7901       1    3492    1692    1532    1543
CTETRA      7902       1    3492    1693    1692    1543
CTETRA      7903       1    3969    3335    3334     960
CTETRA      7904       1    2902    2905    2909     266
CTETRA      7905       1    2902     519    2904     524
CTETRA      7906       1    1087     167     166       6
CTETRA      7907       1     553     347     348     104
CTETRA      7908       1     347     296     348     104
CTETRA      7909       1    2498    2556     689     642
CTETRA      7910       1    1679    1544    1545     134
CTETRA      7911       1     524     266     862    1014
CTETRA      7912       1    2904     524     520     882
CTETRA      7913       1    2127    2128    2130     316
CTETRA      7914       1     367     909      69     591
CTETRA      7915       1     202     400     938     173
CTETRA      7916       1     819     382     983     413
CTETRA      7917       1    1584     719    1128     190
CTETRA      7918       1    3475    1584     719    1128
CTETRA      7919       1    1907    1584    1583    1128
CTETRA      7920       1    3535    1583    1907    1584
CTETRA      7921       1    3504    1787    1788    1563
CTETRA      7922       1     820     718    1128     911
CTETRA      7923       1    1769    1770    1785     733
CTETRA      7924       1    3475     719     718    1128
CTETRA      7925       1    1583    1128     718     911
CTETRA      7926       1    2914    2943     564     561
CTETRA      7927       1    3470     227    2298     171
CTETRA      7928       1    1820    1821    1836     179
CTETRA      7929       1    1245    1279     604     561
CTETRA      7930       1    1245     567    1251     561
CTETRA      7931       1     930     821     369     383
CTETRA      7932       1    3633    3634    2296     111
CTETRA      7933       1    3475    2294    2295     718
CTETRA      7934       1    3083    3151     192     133
CTETRA      7935       1    2162     192    2163     133
CTETRA      7936       1    1876     912     820     792
CTETRA      7937       1    4016    4017    1987    2963
CTETRA      7938       1    2175    3152    3151     133
CTETRA      7939       1    2162     268    2163     192
CTETRA      7940       1    3537    3538    1904    1591
CTETRA      7941       1     268     192     801     976
CTETRA      7942       1    2436     801     976     661
CTETRA      7943       1    3164     802     328     661
CTETRA      7944       1    4264    3663    3987    2027
CTETRA      7945       1    2420     409    2433     661
CTETRA      7946       1    1987    1999    2963     518
CTETRA      7947       1    4282    1596    3598     175
CTETRA      7948       1    2438    1119    1101     663
CTETRA      7949       1    3165    3168     268     976
CTETRA      7950       1    3574    3660    3575    1643
CTETRA      7951       1    3085    1036    3271    1119
CTETRA      7952       1     477     704     176     850
CTETRA      7953       1    3595    3596    2274     704
CTETRA      7954       1    3988    2025    2844    2845
CTETRA      7955       1    2273    2274     704     732
CTETRA      7956       1    3835     323    3836     347
CTETRA      7957       1    2437    2438     976    1119
CTETRA      7958       1    3662    1676     543     292
CTETRA      7959       1    3234    3260    3257     637
CTETRA      7960       1    3259     637     971     993
CTETRA      7961       1    3205     863    3206    1147
CTETRA      7962       1    3338    1160    1162     164
CTETRA      7963       1    1674    1676    1675     293
CTETRA      7964       1    1373     863    3205    1147
CTETRA      7965       1    1370    3257    1373     637
CTETRA      7966       1    3256    3258     637     863
CTETRA      7967       1    1596    1610    1611     402
CTETRA      7968       1    1105     863    1142     993
CTETRA      7969       1    3364    1621    3365     511
CTETRA      7970       1    3573    4299    3662     543
CTETRA      7971       1    3256     637    3259     863
CTETRA      7972       1    2612    1016     862     265
CTETRA      7973       1    2611     596    2616     265
CTETRA      7974       1    2865     619     884     346
CTETRA      7975       1    2903    2905     266    1014
CTETRA      7976       1    2897     266    2905    1014
CTETRA      7977       1    1813    1576     599     579
CTETRA      7978       1    3462    1573     966     579
CTETRA      7979       1    1733    1749    1748      93
CTETRA      7980       1    3979    1625    3361     584
CTETRA      7981       1    3361    3362    1172      61
CTETRA      7982       1    1623    1625    1624     868
CTETRA      7983       1    3977    1621    3364      62
CTETRA      7984       1    3573    3622    4299     543
CTETRA      7985       1    3978    3361    3979    1625
CTETRA      7986       1    3359    1168    1170     886
CTETRA      7987       1    1825     888     593    1065
CTETRA      7988       1    3522    1812    1573    1576
CTETRA      7989       1    4271    1628    3618      90
CTETRA      7990       1    4266    4267    1633      68
CTETRA      7991       1    3622     543    1677    1024
CTETRA      7992       1    3462     966     331     579
CTETRA      7993       1    3213    3229    3214     692
CTETRA      7994       1    3213     692    3214     848
CTETRA      7995       1     433     434     691     687
CTETRA      7996       1     127    1082      99     120
CTETRA      7997       1    3835     860     323     347
CTETRA      7998       1    3836    2315     347     322
CTETRA      7999       1    3834    2309     553     347
CTETRA      8000       1     861     348     322    1106
CTETRA      8001       1    2023    2024     861     322
CTETRA      8002       1    3356     430     589     904
CTETRA      8003       1    1624    1625      91     868
CTETRA      8004       1    3620    3621    2253     709
CTETRA      8005       1    3575    3659    3576    1646
CTETRA      8006       1    2309     553     348     862
CTETRA      8007       1    1034    1106    1084     852
CTETRA      8008       1     161       2       1       4
CTETRA      8009       1    4095    2083    3314    3315
CTETRA      8010       1    1165     467     101     259
CTETRA      8011       1    3834     553     860     347
CTETRA      8012       1    3088    3176    3178     787
CTETRA      8013       1    3448    3657    4289    4116
CTETRA      8014       1    3176     787     752     757
CTETRA      8015       1    3189     671     766     670
CTETRA      8016       1    3172    3176    1114     752
CTETRA      8017       1    4297    4125    3648      25
CTETRA      8018       1    3172     752    1114     670
CTETRA      8019       1    3176    1114     752     787
CTETRA      8020       1    3089    1114    3176     787
CTETRA      8021       1    3635    2279    2296     111
CTETRA      8022       1    3089    1114     611     610
CTETRA      8023       1    1655    1657     541     725
CTETRA      8024       1     300     301     670     538
CTETRA      8025       1     293    1020     476    1024
CTETRA      8026       1     611    1114     890     610
CTETRA      8027       1    2612    2619     862    1016
CTETRA      8028       1    2613    1011    1016    1071
CTETRA      8029       1    3473    2304    2293     130
CTETRA      8030       1    4015    1999    2962    2963
CTETRA      8031       1    1015    1011     765    1014
CTETRA      8032       1    2622    2624    1011    1016
CTETRA      8033       1    1819    1835    1834     178
CTETRA      8034       1     524     862     105    1014
CTETRA      8035       1    3470    1585    1586     171
CTETRA      8036       1    1850    1866    1865    1020
CTETRA      8037       1    2617    1071     233    1049
CTETRA      8038       1     862     266     265    1014
CTETRA      8039       1    2613    1011    2624    1016
CTETRA      8040       1    1526     545     546     525
CTETRA      8041       1    3449    1526     546     525
CTETRA      8042       1    3374    1523     457     263
CTETRA      8043       1    1270     854     517     855
CTETRA      8044       1    2939    2940    2952     856
CTETRA      8045       1    1058     412     385     132
CTETRA      8046       1    3414     457    1523     530
CTETRA      8047       1    3449    1574     525    1112
CTETRA      8048       1    3687     525    3688    1112
CTETRA      8049       1    3968    3969    1597     959
CTETRA      8050       1    3417    1165    3418     461
CTETRA      8051       1    3605    2266    2265     839
CTETRA      8052       1    1523     457     263     525
CTETRA      8053       1    4123     873    4124     549
CTETRA      8054       1     394     887     495     535
CTETRA      8055       1    3344    1164    1163    1082
CTETRA      8056       1    4122     548    2824     429
CTETRA      8057       1    1687    1537    1540     245
CTETRA      8058       1    4122     425    4123     548
CTETRA      8059       1    1156     909    1157     116
CTETRA      8060       1    1716     746     114     115
CTETRA      8061       1    1717     244     989     115
CTETRA      8062       1     289     858     388     435
CTETRA      8063       1     388     390    1027     435
CTETRA      8064       1     337     768     979     978
CTETRA      8065       1    2569    2570    1073     337
CTETRA      8066       1    1736    1737    1752     509
CTETRA      8067       1    1737    1738    1753     731
CTETRA      8068       1    1761    1777    1776     997
CTETRA      8069       1    1718    1719    1734    1026
CTETRA      8070       1    2625     338     699    1097
CTETRA      8071       1    1681    1697    1696     258
CTETRA      8072       1    2081    2084    2083     311
CTETRA      8073       1    2855     517    3025     767
CTETRA      8074       1    3336     164     168     959
CTETRA      8075       1     396     224     397     286
CTETRA      8076       1     874     866     594    1100
CTETRA      8077       1    2267     150     833     186
CTETRA      8078       1    1851    1867    1866     923
CTETRA      8079       1    2218    2219    2224     988
CTETRA      8080       1     318     638    1037    1038
CTETRA      8081       1    1777     576    1778    1138
CTETRA      8082       1    3437    2268    3438     956
CTETRA      8083       1    3500    3501    1792    1553
CTETRA      8084       1    1269    2953    2940     507
CTETRA      8085       1    2223     484    2381     653
CTETRA      8086       1    1766    1781    1780     417
CTETRA      8087       1    1780    1795    1794     640
CTETRA      8088       1    2207    2212     652     988
CTETRA      8089       1    1781    1796    1795     417
CTETRA      8090       1    2380    2381     484     653
CTETRA      8091       1    3498    1794    1795    1552
CTETRA      8092       1    2224    2242     371     612
CTETRA      8093       1     780     651     480    1038
CTETRA      8094       1    2929    2931    2930    1143
CTETRA      8095       1    3491    1692    1691    1532
CTETRA      8096       1    3395    3541     715     921
CTETRA      8097       1    3680    3493    4292    1542
CTETRA      8098       1     319     318     317     478
CTETRA      8099       1    3121    3136     611     612
CTETRA      8100       1     484    1140     818     478
CTETRA      8101       1    2375     780    2380     484
CTETRA      8102       1    1851     153     923    1020
CTETRA      8103       1     963     875    1041     924
CTETRA      8104       1    2777     963    1041     924
CTETRA      8105       1    3401    3827    3826     352
CTETRA      8106       1    2767     674    1041     877
CTETRA      8107       1    3393    3394    1517     925
CTETRA      8108       1    3457    1516    1518     157
CTETRA      8109       1    2768    2777    1041    1103
CTETRA      8110       1    2751     191     996    1045
CTETRA      8111       1     875    1041     672     673
CTETRA      8112       1    2766    2773     963    1041
CTETRA      8113       1    3460     914    1578     593
CTETRA      8114       1     287      49     888      51
CTETRA      8115       1    2766    2767    1041     877
CTETRA      8116       1    3660     442    1643     292
CTETRA      8117       1     273      63      17      64
CTETRA      8118       1    1646     634     442      22
CTETRA      8119       1     442     635     634     295
CTETRA      8120       1    1396    1397    1399     847
CTETRA      8121       1    1398    2305    2823    1007
CTETRA      8122       1    1643    1644    1675     634
CTETRA      8123       1    3636     789    2279    1005
CTETRA      8124       1     369     749     821     113
CTETRA      8125       1     111     113     788    1004
CTETRA      8126       1    3652    4122    4121     403
CTETRA      8127       1    3391    3544    3543    1672
CTETRA      8128       1    1880    1895     129      38
CTETRA      8129       1    1840    1841    1856     439
CTETRA      8130       1    1644     634    1648     899
CTETRA      8131       1    1865    1881    1880    1022
CTETRA      8132       1    3477     791     739    1017
CTETRA      8133       1    3435      95    2256    1139
CTETRA      8134       1    3268     975    3284     464
CTETRA      8135       1    4131    3241    1393     846
CTETRA      8136       1    3284     975     197     464
CTETRA      8137       1    3688    3509    1799    1574
CTETRA      8138       1    1819    1820    1835     179
CTETRA      8139       1    3687    3688    1799    1112
CTETRA      8140       1    3283     219     146     464
CTETRA      8141       1    3375    3376    1526     545
CTETRA      8142       1    3449    1521    1526     525
CTETRA      8143       1    3382     368    1528    1086
CTETRA      8144       1    2332    2464    2466    1030
CTETRA      8145       1    1030     698     974     464
CTETRA      8146       1    1857    1873    1872     581
CTETRA      8147       1    2010    2012     935     933
CTETRA      8148       1    3652     403    3653     426
CTETRA      8149       1    3279    1121    1123    1122
CTETRA      8150       1    1934    1935    1940     773
CTETRA      8151       1    2972    2984    2973     774
CTETRA      8152       1    1942    2805    1950     949
CTETRA      8153       1    1929    1930    1935     773
CTETRA      8154       1    4044    4045    1928    2999
CTETRA      8155       1    1379    1382    1381     423
CTETRA      8156       1    3269    3281    1031     974
CTETRA      8157       1    3280     464    3283    1123
CTETRA      8158       1    4043    4044    1934    3000
CTETRA      8159       1    3280    1121    1090     464
CTETRA      8160       1    1929     777     191     773
CTETRA      8161       1    3124     650     651     652
CTETRA      8162       1    2201    2207    2206     652
CTETRA      8163       1    3541    1675     715     921
CTETRA      8164       1    4040    4041    1948    2987
CTETRA      8165       1    3094    1072     650     652
CTETRA      8166       1    2938     856    2954     569
CTETRA      8167       1    2984    2987    2986     951
CTETRA      8168       1    3914    1950    1942    2805
CTETRA      8169       1    4056    2201    3094    3124
CTETRA      8170       1    3416    1541     928     258
CTETRA      8171       1    2912    2913    2941     565
CTETRA      8172       1    1160     324    1166     257
CTETRA      8173       1    4035    1925    1959    2990
CTETRA      8174       1    3340     323    3341     467
CTETRA      8175       1    1925    2990    2991     991
CTETRA      8176       1    1849     384     443     385
CTETRA      8177       1    2968    2977    2981     991
CTETRA      8178       1    2967    2977    2968    1146
CTETRA      8179       1    3416     928    1160     257
CTETRA      8180       1    1939    1945    1944    1145
CTETRA      8181       1    1165     257     467     259
CTETRA      8182       1    1964    1965    1969     210
CTETRA      8183       1    3341     101    1165     467
CTETRA      8184       1    3417    3418    1547     461
CTETRA      8185       1    2288     206      26      32
CTETRA      8186       1    1957    1965     196     893
CTETRA      8187       1    1977     616    1985     615
CTETRA      8188       1    1977    1985    1983     615
CTETRA      8189       1    2281     778    2292     405
CTETRA      8190       1    3212    3239    3241     892
CTETRA      8191       1    1970    1971    1976     615
CTETRA      8192       1    2733    2745    2742     616
CTETRA      8193       1    3465    3466    1589     405
CTETRA      8194       1    3020    3046    3044     614
CTETRA      8195       1    1941     949    1949     951
CTETRA      8196       1    1971    2747    1977     615
CTETRA      8197       1    1940     774     776     773
CTETRA      8198       1    1948    2987    2988     951
CTETRA      8199       1    2972    3002     776     774
CTETRA      8200       1    3038     614     990     501
CTETRA      8201       1    2570    2673    2571     344
CTETRA      8202       1    1990    1991    1996    1012
CTETRA      8203       1    2912    2931    2929    1091
CTETRA      8204       1    1941     774     772     949
CTETRA      8205       1    2000     816     376     518
CTETRA      8206       1    2629    2653    2682     569
CTETRA      8207       1    1990    1994    1991     697
CTETRA      8208       1    3930    1984    1985    2734
CTETRA      8209       1    1940    2971     776     774
CTETRA      8210       1    2971    2972     776     774
CTETRA      8211       1     905    1148     685     558
CTETRA      8212       1    3940    2001    1989    2670
CTETRA      8213       1     905     558     685     701
CTETRA      8214       1    2005    2008    2955     376
CTETRA      8215       1    1148     351     558     316
CTETRA      8216       1    4132    4133    1390    3241
CTETRA      8217       1    3139    3169    3188    1152
CTETRA      8218       1    4004    2934    2047    2935
CTETRA      8219       1    2949    2951     341     508
CTETRA      8220       1    1495    1496    1505    3148
CTETRA      8221       1    1496    1499    3155     799
CTETRA      8222       1    2684    2687    2688     935
CTETRA      8223       1    2036    1117    1054     713
CTETRA      8224       1    1496    3155     600     799
CTETRA      8225       1    2048     897    2049     339
CTETRA      8226       1    2031    2037    2036     713
CTETRA      8227       1    2357    2362    2363     754
CTETRA      8228       1    2030    2031    2036     713
CTETRA      8229       1    1495     600     870     798
CTETRA      8230       1     711     415     933     565
CTETRA      8231       1    2017    2933     415    1053
CTETRA      8232       1    2047    2935    2934    1116
CTETRA      8233       1    4005    2047    2934    1117
CTETRA      8234       1    3147    3148    3155     600
CTETRA      8235       1    2926    2930    2934    1117
CTETRA      8236       1    3186    3188     470     874
CTETRA      8237       1    3186     874     470     473
CTETRA      8238       1    2630    2656    2653     565
CTETRA      8239       1    1488    3198    3202     471
CTETRA      8240       1    2231    2234    2248     758
CTETRA      8241       1    2926    2934    2935    1116
CTETRA      8242       1    4004    2047    2050    2935
CTETRA      8243       1    2396     871     327     328
CTETRA      8244       1    4003    2050    2056    2858
CTETRA      8245       1    3139    1152    3188     874
CTETRA      8246       1    2015     415     933    1053
CTETRA      8247       1    2404    2406     870     798
CTETRA      8248       1    2403    2404     870    1100
CTETRA      8249       1    2414     472    2415     594
CTETRA      8250       1    2625    2672     699     338
CTETRA      8251       1    2854     695    2950     338
CTETRA      8252       1    1270     977     517     978
CTETRA      8253       1    2672    2675     699     695
CTETRA      8254       1    2577    2666    2659     349
CTETRA      8255       1    3033    3036     694    1097
CTETRA      8256       1    2853    1047     694    1012
CTETRA      8257       1    2854     694     695     338
CTETRA      8258       1    1208     771     621     490
CTETRA      8259       1    2693    2694    2816     622
CTETRA      8260       1    1210    2819     771     490
CTETRA      8261       1    2967    1146     622     623
CTETRA      8262       1    3865    2491    2093    2495
CTETRA      8263       1    2093    2495    2491     234
CTETRA      8264       1    2158    3285    3293     146
CTETRA      8265       1    1210    1211    2813    2819
CTETRA      8266       1    2966     620    2980     623
CTETRA      8267       1    2925    2929    2927     927
CTETRA      8268       1    2967    3056     621      39
CTETRA      8269       1     621     622     490     623
CTETRA      8270       1    1925    1926    1125     991
CTETRA      8271       1     688     209    1125      42
CTETRA      8272       1    2969     209    3060    1125
CTETRA      8273       1    4091    2101    2102     231
CTETRA      8274       1    4091    3317    2101     231
CTETRA      8275       1    2096    2097    2099     632
CTETRA      8276       1    2968    2981    1125     991
CTETRA      8277       1    1619     512     511     241
CTETRA      8278       1    3365    1174     511     512
CTETRA      8279       1    3366    1619    1617     512
CTETRA      8280       1    3367    1167    1174     512
CTETRA      8281       1    3975    1617    3366    1619
CTETRA      8282       1    3365     511    1619     512
CTETRA      8283       1    2429    2430    2433     409
CTETRA      8284       1    2930    2936    2934    1117
CTETRA      8285       1    3850    2115    2120    2550
CTETRA      8286       1    2197    2203     802     409
CTETRA      8287       1    2203     409    2204     406
CTETRA      8288       1    2203    2209     410     406
CTETRA      8289       1    2421    2422    2429     406
CTETRA      8290       1    2457    2459     145     123
CTETRA      8291       1    2110    2112    2114     967
CTETRA      8292       1    3868    2166    2160     123
CTETRA      8293       1    2546     641    2547     643
CTETRA      8294       1    2165     145     219     123
CTETRA      8295       1    2165    2167     145     123
CTETRA      8296       1    2546     796     641     643
CTETRA      8297       1    2498    2556    2548     689
CTETRA      8298       1    2124    2127    2126     351
CTETRA      8299       1    2078    2088    2079     200
CTETRA      8300       1    2453     218     145     123
CTETRA      8301       1    4107    2128    2125    3216
CTETRA      8302       1    3230    3232     905     702
CTETRA      8303       1    2453     145    2459     123
CTETRA      8304       1    3868    2492    2454     123
CTETRA      8305       1    2159    2165     219     123
CTETRA      8306       1    2926    2927    2930    1118
CTETRA      8307       1    2079    2492    2160     200
CTETRA      8308       1     819     820     718    1128
CTETRA      8309       1    2924    2925    2927     927
CTETRA      8310       1     829     931     985     830
CTETRA      8311       1     361     748     819     413
CTETRA      8312       1    2419    2438     865     663
CTETRA      8313       1    1316    1320    1319     297
CTETRA      8314       1    4074    2208    3142    3150
CTETRA      8315       1    2342    2343    2401    1136
CTETRA      8316       1    4077    4078    2157    3153
CTETRA      8317       1    4077    2157    2152    3154
CTETRA      8318       1    1746    1761     356     997
CTETRA      8319       1    1746     997     356     357
CTETRA      8320       1    3187    3197    3199     540
CTETRA      8321       1    2397    1129    2398     327
CTETRA      8322       1    1747      83     997     578
CTETRA      8323       1    4077    3153    2157    3154
CTETRA      8324       1    2877    2878    2900     764
CTETRA      8325       1    1323    2876    2899     765
CTETRA      8326       1    3141    3142     867     410
CTETRA      8327       1     997     957     577     707
CTETRA      8328       1     362     243     247     363
CTETRA      8329       1    2456    2457    2458     261
CTETRA      8330       1    1685    1686    1701     117
CTETRA      8331       1    1540     251     243     245
CTETRA      8332       1    1687    1540     243     245
CTETRA      8333       1    4081    4082    2173    3082
CTETRA      8334       1    2336    2337    2455     900
CTETRA      8335       1    1688    1704    1703     247
CTETRA      8336       1     484     651    1140     478
CTETRA      8337       1    2604    2605    2613     761
CTETRA      8338       1    2327     780    2379    1115
CTETRA      8339       1    2375    2383     480     478
CTETRA      8340       1     780     650     781     653
CTETRA      8341       1     484    1140     988     612
CTETRA      8342       1    2455    2456    2458     261
CTETRA      8343       1     583     576    1139      85
CTETRA      8344       1    3435    3436    1556     705
CTETRA      8345       1    2895    2898    2901     765
CTETRA      8346       1    1109     995     188     193
CTETRA      8347       1    3906    3907    2181    2749
CTETRA      8348       1    1793    1550    1138     640
CTETRA      8349       1    3435    1550      95    1138
CTETRA      8350       1    2751     191    2790     996
CTETRA      8351       1    1192    3015    3005     487
CTETRA      8352       1    1188    2754     961     488
CTETRA      8353       1     488     489     486     487
CTETRA      8354       1     961    1064     876     485
CTETRA      8355       1    1862     412     720     383
CTETRA      8356       1     111     820     113    1004
CTETRA      8357       1    1861     720     912     821
CTETRA      8358       1    1057     912     792    1004
CTETRA      8359       1    1892     820    1128     911
CTETRA      8360       1    3897    2217    2381     653
CTETRA      8361       1    1861    1862     720     821
CTETRA      8362       1    3097     683     946    1150
CTETRA      8363       1    1892     820     819    1128
CTETRA      8364       1     112     111     820     113
CTETRA      8365       1    2194    2200    2199     280
CTETRA      8366       1    2189     280    2193     804
CTETRA      8367       1    1861     720    1876     912
CTETRA      8368       1    2206    2212    2211     653
CTETRA      8369       1    2200     806     781     280
CTETRA      8370       1    2329    2378    1098    1037
CTETRA      8371       1    1115    1072     805     280
CTETRA      8372       1    3123    3124    3134     651
CTETRA      8373       1    4061    4062    2226    3121
CTETRA      8374       1    3458    1519     281     157
CTETRA      8375       1    2200    2206    2205     781
CTETRA      8376       1    2211    2212    2217     653
CTETRA      8377       1    1008     881      15     898
CTETRA      8378       1    3459    1565     281     588
CTETRA      8379       1    1823     920     195     588
CTETRA      8380       1    3885    3886    2250    2354
CTETRA      8381       1    3889    2344    2387     760
CTETRA      8382       1    2341    2356    2342    1135
CTETRA      8383       1    2232    2233    2236     817
CTETRA      8384       1    3120    3121    3136     611
CTETRA      8385       1    1822     195     395     157
CTETRA      8386       1    2362     753     754     766
CTETRA      8387       1    1807    1570    1808     195
CTETRA      8388       1     920     629     281     588
CTETRA      8389       1    2345    2388    2387     760
CTETRA      8390       1    1808    1823     195     588
CTETRA      8391       1    3135     651    1140     988
CTETRA      8392       1    3390     475    1514     497
CTETRA      8393       1    1507     492    1515     497
CTETRA      8394       1    3388     492    1507     827
CTETRA      8395       1    2241     760     809     787
CTETRA      8396       1     492     497     496     444
CTETRA      8397       1    2340    2341     866    1070
CTETRA      8398       1    3171    3175    3177     756
CTETRA      8399       1    2228    2229    2246     757
CTETRA      8400       1    3122    3135    3136    1140
CTETRA      8401       1    3388    3545    3389     492
CTETRA      8402       1     443     481     385     830
CTETRA      8403       1    1668     492     827     481
CTETRA      8404       1    1775      75     957      94
CTETRA      8405       1    4271    3617    3616      90
CTETRA      8406       1    1791      94     957     707
CTETRA      8407       1     356     357     997     577
CTETRA      8408       1     954     956     706     358
CTETRA      8409       1     956     706     957     707
CTETRA      8410       1    1767    1782    1781    1120
CTETRA      8411       1    1686    1539    1537     590
CTETRA      8412       1    1752    1767    1766     249
CTETRA      8413       1    3603    3604    2263      57
CTETRA      8414       1    1313     297     304     298
CTETRA      8415       1    3974    3368    3975    1617
CTETRA      8416       1    4279    3602    4280    1607
CTETRA      8417       1     356     997     957     577
CTETRA      8418       1    1314    2886    1317     297
CTETRA      8419       1    1308     303    2880     298
CTETRA      8420       1      79     957      75      81
CTETRA      8421       1     114     915     965     907
CTETRA      8422       1     918     515     514     516
CTETRA      8423       1     121     965    1078     915
CTETRA      8424       1    3420    1078    1159     965
CTETRA      8425       1    1943    1130    2696     992
CTETRA      8426       1    4264    4283    4300    3596
CTETRA      8427       1    3507    1784    1785    1560
CTETRA      8428       1    3443    3444    1560     732
CTETRA      8429       1    3596    3597    2274     704
CTETRA      8430       1    1685    1700     744     117
CTETRA      8431       1    1699    1700     114     744
CTETRA      8432       1    3640    3641    2283    1051
CTETRA      8433       1    3420    1078     965     744
CTETRA      8434       1      26     269      32      27
CTETRA      8435       1     114     116     965     117
CTETRA      8436       1    1683     743    1533     744
CTETRA      8437       1    3420    1533    1078     744
CTETRA      8438       1    3685    3686    1844    1029
CTETRA      8439       1     289     440     439     290
CTETRA      8440       1     393     315     427      45
CTETRA      8441       1     436     920     629     305
CTETRA      8442       1    3403     627     723     628
CTETRA      8443       1     628     629     436     914
CTETRA      8444       1    3415    1161     928     134
CTETRA      8445       1    1859    1057    1874    1062
CTETRA      8446       1    1890     174     792    1017
CTETRA      8447       1    1695     256    1710     208
CTETRA      8448       1    3415     928    1545     134
CTETRA      8449       1    3416    1160    3417     257
CTETRA      8450       1     981     442     635      22
CTETRA      8451       1    1166     324     467     257
CTETRA      8452       1    3469    2280    2300     522
CTETRA      8453       1    1002      59     227     635
CTETRA      8454       1     168     208     928     134
CTETRA      8455       1    1161     168     928     134
CTETRA      8456       1     928     258     939     161
CTETRA      8457       1    2038    2044    2615     233
CTETRA      8458       1    2711     657     196      42
CTETRA      8459       1    2032    2311    2313     861
CTETRA      8460       1    3959    2059    2067    2603
CTETRA      8461       1    1957    1963    2697     196
CTETRA      8462       1    1324    1325    1328     552
CTETRA      8463       1    1711    1727    1726     416
CTETRA      8464       1    1324    2325    2320     552
CTETRA      8465       1    3059     209    3061     203
CTETRA      8466       1    3051     203    3052     211
CTETRA      8467       1    3059    3060     209     203
CTETRA      8468       1    2786    2787    2798     489
CTETRA      8469       1    3051    3060     203      42
CTETRA      8470       1    2348    2364    2382     539
CTETRA      8471       1    1470    3204     301     665
CTETRA      8472       1    4141    1358    3205    1147
CTETRA      8473       1    2338    2339    2414     667
CTETRA      8474       1    3126    3127    3128     872
CTETRA      8475       1    3758    1436    1434    2373
CTETRA      8476       1    1434    2373    1436    1050
CTETRA      8477       1    3113    3129    3128     318
CTETRA      8478       1    1362    1365    1142    1147
CTETRA      8479       1    4141    3205    3323    1147
CTETRA      8480       1    3670     554    3671     152
CTETRA      8481       1    2778    1103     680     679
CTETRA      8482       1    1412    2776    2775     679
CTETRA      8483       1     672    1044    1043     924
CTETRA      8484       1    2758     680    1103    1150
CTETRA      8485       1    2797     949     795     883
CTETRA      8486       1    3127     946     872    1151
CTETRA      8487       1    2365    2371    2366     320
CTETRA      8488       1    1417     675    1044     679
CTETRA      8489       1    2810    2817    2816     623
CTETRA      8490       1     318     638    1050    1037
CTETRA      8491       1    3760    2373    2371     320
CTETRA      8492       1    2757    1103    1109    1144
CTETRA      8493       1     683    1043     675     679
CTETRA      8494       1    3098     683    3099    1043
CTETRA      8495       1    3099    1102    1043    1150
CTETRA      8496       1    1041    1043     672    1102
CTETRA      8497       1    1711     416     158     256
CTETRA      8498       1    1204    1211    1209     490
CTETRA      8499       1    1041    1043     679     924
CTETRA      8500       1    1041     674    1103    1102
CTETRA      8501       1    3090    3091    3192     359
CTETRA      8502       1    2229    3178    3179     757
CTETRA      8503       1    2514     686    1048     687
CTETRA      8504       1    3177    3180     757     758
CTETRA      8505       1    2346    2391    2388     890
CTETRA      8506       1     905     685    1148     692
CTETRA      8507       1    2503     686    2518     685
CTETRA      8508       1    2514    2518     686     685
CTETRA      8509       1    2513    2515     685     692
CTETRA      8510       1    2694    2810    2816    1146
CTETRA      8511       1     700     905     685     701
CTETRA      8512       1     449    1063     207     450
CTETRA      8513       1    3682     449    3683    1063
CTETRA      8514       1    2246    2251    2252     760
CTETRA      8515       1    3174    3180    3175     758
CTETRA      8516       1    3145    3162    3164     328
CTETRA      8517       1    1710    1726    1725     158
CTETRA      8518       1    3683     449    1873     582
CTETRA      8519       1    1134    1135    1149     817
CTETRA      8520       1    3685    1062     655     527
CTETRA      8521       1    2497     689    2548     351
CTETRA      8522       1     655     452     582     527
CTETRA      8523       1    3140    3185    3169    1152
CTETRA      8524       1    2216    2423    2222     327
CTETRA      8525       1    2397    2400    2401    1129
CTETRA      8526       1    2222    2423    2398     327
CTETRA      8527       1    2399    2401    2400    1100
CTETRA      8528       1    2132    2496    2551     351
CTETRA      8529       1    2803    2808    2807     948
CTETRA      8530       1    1844     542    1062     527
CTETRA      8531       1    1062     542     727     527
CTETRA      8532       1    1546     468     743     461
CTETRA      8533       1    1951    1953    1954     948
CTETRA      8534       1     466    1094     468     743
CTETRA      8535       1    1682    1546    1683     743
CTETRA      8536       1    1533    1546    1094     743
CTETRA      8537       1    1698    1699     742     743
CTETRA      8538       1    3924    1957    2697    2748
CTETRA      8539       1     466    1094     743     237
CTETRA      8540       1    3654     308      18     431
CTETRA      8541       1    1956    1963    1957     196
CTETRA      8542       1    2418    2419    2438     865
CTETRA      8543       1    4117     880    4118     271
CTETRA      8544       1     271     353      23      64
CTETRA      8545       1    3655     880    3656      18
CTETRA      8546       1    3656    4116      21      23
CTETRA      8547       1    2085    2086    2481     587
CTETRA      8548       1    1461    1468    1467    1101
CTETRA      8549       1    2712     688    2714     800
CTETRA      8550       1    3782    3783    1451    2427
CTETRA      8551       1    3780    1461    1467    2417
CTETRA      8552       1    2086    2485    2481     252
CTETRA      8553       1    1963    2703    2697     196
CTETRA      8554       1    3328     633     785     693
CTETRA      8555       1    2084     633     311     252
CTETRA      8556       1    3924    3925    1957    2748
CTETRA      8557       1    1480    1487     869    1033
CTETRA      8558       1    1957     196    2748     893
CTETRA      8559       1    1131     763     428    1003
CTETRA      8560       1    2481    2483    2482     252
CTETRA      8561       1    1923     345     697    1012
CTETRA      8562       1    4262    2028       5       7
CTETRA      8563       1    1111    1144     807     804
CTETRA      8564       1    2401    2402    1129    1136
CTETRA      8565       1    3108    1111     807     804
CTETRA      8566       1    4165    1487    1481    3158
CTETRA      8567       1    3246    3261     794     463
CTETRA      8568       1    3678     212    1723     170
CTETRA      8569       1    2116    2119    2117     793
CTETRA      8570       1    3245    3263    3262     794
CTETRA      8571       1    2221    2222    2239    1129
CTETRA      8572       1     153    1020     179     716
CTETRA      8573       1    2395    2420    2419     662
CTETRA      8574       1     177     474     476    1020
CTETRA      8575       1    3182    3185    3183     867
CTETRA      8576       1    3165     268    3166     661
CTETRA      8577       1    1677     543     293    1024
CTETRA      8578       1    1061     923     293    1020
CTETRA      8579       1    1643     634    1675     293
CTETRA      8580       1    2078    2160    2159     123
CTETRA      8581       1    2168    2455    2169     261
CTETRA      8582       1     293    1020     923     716
CTETRA      8583       1    3793    3794    1356    2477
CTETRA      8584       1    3674     942    3675    1039
CTETRA      8585       1    1675     634     899     922
CTETRA      8586       1    2442    1089     953    1121
CTETRA      8587       1    1448    1451    1449     953
CTETRA      8588       1    3036    3037    3040    1018
CTETRA      8589       1    1438    1448    1069     953
CTETRA      8590       1    1001    1013     345     998
CTETRA      8591       1    1437    2428    1451     953
CTETRA      8592       1    3856    3857    2113    2486
CTETRA      8593       1    1451    2427    2426     953
CTETRA      8594       1    2106    2107    2110     462
CTETRA      8595       1     913     250     648     649
CTETRA      8596       1    1368    1369    3321    1131
CTETRA      8597       1      36      62     511     510
CTETRA      8598       1    1368    3321    3320    1131
CTETRA      8599       1      36     513     836     510
CTETRA      8600       1    1619     240     512     241
CTETRA      8601       1     648     250     241     649
CTETRA      8602       1    2079    2088    2093     234
CTETRA      8603       1    2489    2490    2491     198
CTETRA      8604       1    1334    3307    1442    1032
CTETRA      8605       1      89     254     894     649
CTETRA      8606       1    1620    1621    1622     868
CTETRA      8607       1    1620     253     241     649
CTETRA      8608       1    3863    3864    2091    2495
CTETRA      8609       1      89     894      88     649
CTETRA      8610       1     484     818    1140     612
CTETRA      8611       1    2223    2377    2381     484
CTETRA      8612       1    3131     650     872    1038
CTETRA      8613       1    2212    2218     653     988
CTETRA      8614       1    2380     484     780     653
CTETRA      8615       1    3865    3866    2093    2491
CTETRA      8616       1    3665     282     284     859
CTETRA      8617       1    3593    3594    2276     477
CTETRA      8618       1    3665     282     859     849
CTETRA      8619       1    3592     282    3593     283
CTETRA      8620       1    1998    3041    3039    1012
CTETRA      8621       1     360     235      81      77
CTETRA      8622       1     235     187      75      76
CTETRA      8623       1    1760     356    1761     957
CTETRA      8624       1     956     957      75      94
CTETRA      8625       1    4050    4051    2186    3110
CTETRA      8626       1    1774      75    1775      94
CTETRA      8627       1    3819     392     394     557
CTETRA      8628       1    3580    3818    2147     557
CTETRA      8629       1    1796    1548     417     919
CTETRA      8630       1    3675     734     942     276
CTETRA      8631       1    1120     276    1059     735
CTETRA      8632       1    1770    1039     184     733
CTETRA      8633       1     942     813    1039    1077
CTETRA      8634       1    1644    1675     634     899
CTETRA      8635       1     690     969     973     423
CTETRA      8636       1     704     175     732     185
CTETRA      8637       1    2307    2507     532     824
CTETRA      8638       1    4282    3598    3597     175
CTETRA      8639       1    3675     940    1754    1039
CTETRA      8640       1    1755     184    1770    1039
CTETRA      8641       1    1755     940     184    1039
CTETRA      8642       1    2179    2771    2180     188
CTETRA      8643       1    1919    1932    1931     191
CTETRA      8644       1    3213     892     687     848
CTETRA      8645       1    3807    3808    1377    2523
CTETRA      8646       1    2751     996     877    1045
CTETRA      8647       1    2751     996    2772     877
CTETRA      8648       1    2445    2446    2541    1003
CTETRA      8649       1     430     904     585     592
CTETRA      8650       1    1716     989     906     115
CTETRA      8651       1    3796    3797    1355    2545
CTETRA      8652       1    2097     228    2098     231
CTETRA      8653       1     362     989     244     578
CTETRA      8654       1    3297    3331    3326     762
CTETRA      8655       1    1716    1731     906     989
CTETRA      8656       1    1717     362     989     244
CTETRA      8657       1    3295    3329    1068     984
CTETRA      8658       1    2446    2483    2447     664
CTETRA      8659       1    1731     906     989     357
CTETRA      8660       1    3296    3326    3329     984
CTETRA      8661       1    2444    2542    2543     428
CTETRA      8662       1    1529     262     829     987
CTETRA      8663       1    3847    2126    2129    2552
CTETRA      8664       1    1528    1529     987     986
CTETRA      8665       1    3374     457    1649     263
CTETRA      8666       1    3559    3644    1653     459
CTETRA      8667       1    3547    1664    1666     262
CTETRA      8668       1    3386    3547    1666     262
CTETRA      8669       1     625     616     624     615
CTETRA      8670       1    1185    1200    1186     771
CTETRA      8671       1    1208    1209    1210     490
CTETRA      8672       1    2504    2516    2517    1019
CTETRA      8673       1    1186    1208     771     620
CTETRA      8674       1    1185    1210    2812     771
CTETRA      8675       1    1185    2812    2800     771
CTETRA      8676       1    4103    2119    2105     793
CTETRA      8677       1    1347    1353     784     943
CTETRA      8678       1    1346    3310    1348     784
CTETRA      8679       1    3677     896    3678     929
CTETRA      8680       1    3301    3304     784     782
CTETRA      8681       1    1348     784    3306     782
CTETRA      8682       1    2499     970    2556     642
CTETRA      8683       1    3304    3306     784     782
CTETRA      8684       1     544     373     541     380
CTETRA      8685       1    3377    1656    3551     544
CTETRA      8686       1    2126    2129    2552     351
CTETRA      8687       1    3214    3230    3215     902
CTETRA      8688       1    3378    3551    3379     544
CTETRA      8689       1    3802    3803    1363    2567
CTETRA      8690       1     544     379     373     380
CTETRA      8691       1    1895    1910     131     141
CTETRA      8692       1    1363    2567    1105    1142
CTETRA      8693       1    3096    3097    3127    1151
CTETRA      8694       1    1364    1365    1369     646
CTETRA      8695       1    2883     303     619     346
CTETRA      8696       1    1910    1588     131     141
CTETRA      8697       1    3722    1231    1182    2726
CTETRA      8698       1    3095    3105    3096     807
CTETRA      8699       1    1309    1310    1313     304
CTETRA      8700       1    1878     412    1879     382
CTETRA      8701       1    2585    2586    2591     618
CTETRA      8702       1    1297     303    2587     618
CTETRA      8703       1    1291     570    1295     618
CTETRA      8704       1     129     131     130     141
CTETRA      8705       1    2879    2891    2888     270
CTETRA      8706       1    2582    2585    2587     618
CTETRA      8707       1    1058     129     131     132
CTETRA      8708       1    2878    2883    2879     346
CTETRA      8709       1    2580     831    1081     619
CTETRA      8710       1    2062    2063    2076     342
CTETRA      8711       1    1879    1058     129     131
CTETRA      8712       1    1894     129    1895     131
CTETRA      8713       1     436     914     629     593
CTETRA      8714       1    2593     270    2594    1049
CTETRA      8715       1    3420    3421    1538     965
CTETRA      8716       1    2604    2613    2617    1071
CTETRA      8717       1    3961    3962    2044    2592
CTETRA      8718       1     630     438     914     437
CTETRA      8719       1    1541     939     928     258
CTETRA      8720       1    1509     914     628     437
CTETRA      8721       1    1573    1065     966     579
CTETRA      8722       1    2034    2845    2840     879
CTETRA      8723       1     888     966     626    1065
CTETRA      8724       1     284    1034     859     523
CTETRA      8725       1     779     221     573     215
CTETRA      8726       1    1578     593     914    1065
CTETRA      8727       1     519    1034     284     523
CTETRA      8728       1    1511     630     555     626
CTETRA      8729       1     105    1015     551     573
CTETRA      8730       1    3460     629     914     593
CTETRA      8731       1    3405     630    1510     437
CTETRA      8732       1    3723    2726    2730     681
CTETRA      8733       1    2007    2010    2009     935
CTETRA      8734       1     797     813     942    1077
CTETRA      8735       1    1277    1282    1278     601
CTETRA      8736       1    1156    1158     909     116
CTETRA      8737       1    3708    3709    1244    2639
CTETRA      8738       1    3710    3711    1252    2634
CTETRA      8739       1    3421     116    1539     117
CTETRA      8740       1    1686     115    1701     117
CTETRA      8741       1    1700    1701    1716     114
CTETRA      8742       1    2724    2730    2726     681
CTETRA      8743       1    1159     121     399     965
CTETRA      8744       1     590     116     115     117
CTETRA      8745       1    1870    1885     289     858
CTETRA      8746       1    1870     289    1871     858
CTETRA      8747       1    3710    2634    1252    2639
CTETRA      8748       1    1871     289     287     858
CTETRA      8749       1     778     391     389      33
CTETRA      8750       1    2757    2758    2768    1103
CTETRA      8751       1    2628    2629    2682     569
CTETRA      8752       1    3715    1273    1275    2652
CTETRA      8753       1    2682     933     935     569
CTETRA      8754       1    2643    2644    2652    1124
CTETRA      8755       1    3711    1249    2634    2650
CTETRA      8756       1    2757    2768    2769     674
CTETRA      8757       1    1247    1261    2944     856
CTETRA      8758       1    2952    2954     856     507
CTETRA      8759       1    1886     388     858     389
CTETRA      8760       1     938     932     172     173
CTETRA      8761       1      55     202     138     173
CTETRA      8762       1    1262    1124     856     568
CTETRA      8763       1    1249    1251     567     568
CTETRA      8764       1    2941     564    2943     562
CTETRA      8765       1    3714    3715    1275    2652
CTETRA      8766       1    4286    1176     172     138
CTETRA      8767       1    2939    2942    2944     568
CTETRA      8768       1    2961    2963    2962     518
CTETRA      8769       1    3716    1274    1273    2644
CTETRA      8770       1    4286     172    1544     139
CTETRA      8771       1    3373    1175      55     138
CTETRA      8772       1      19     881      16      17
CTETRA      8773       1    1824     436     920     588
CTETRA      8774       1    3460     629    1509     914
CTETRA      8775       1    1001    1000     344    1013
CTETRA      8776       1    2570    2625    2673     699
CTETRA      8777       1    2630     567     563     565
CTETRA      8778       1    2948    2949     937     508
CTETRA      8779       1    1268     517    2857     507
CTETRA      8780       1     888     914     436     593
CTETRA      8781       1    1825     888     436     593
CTETRA      8782       1     563     564     878     565
CTETRA      8783       1    2011    2012    2014     936
CTETRA      8784       1    3729    1221    1226    2710
CTETRA      8785       1    1212    2709    2719     658
CTETRA      8786       1     656      41      40      37
CTETRA      8787       1     436     593     629     588
CTETRA      8788       1    3634    1661    1659     111
CTETRA      8789       1    3633    2296     112     111
CTETRA      8790       1    2693    2816    2818     490
CTETRA      8791       1    3730    2709    1225    2710
CTETRA      8792       1    2855    3025    3033     767
CTETRA      8793       1     935     936     937     508
CTETRA      8794       1     820     792     791     911
CTETRA      8795       1    3477    1580     791    1017
CTETRA      8796       1    1259    1260    1266     767
CTETRA      8797       1    2724    1073     333     681
CTETRA      8798       1    2279    2296     111     791
CTETRA      8799       1    3565    3635    3634    1659
CTETRA      8800       1    3039    3040    3042    1013
CTETRA      8801       1    2571    2738     333    1001
CTETRA      8802       1    2724     333     334     681
CTETRA      8803       1     819     718     719    1128
CTETRA      8804       1     625     614     616     615
CTETRA      8805       1    1057     537     912    1004
CTETRA      8806       1    1970     625    1975     210
CTETRA      8807       1    2742     501     790     502
CTETRA      8808       1    3019    3020    3067     625
CTETRA      8809       1     789     791    1005     726
CTETRA      8810       1    3035     501    3038     336
CTETRA      8811       1     590     115     116     591
CTETRA      8812       1    1982     616     999     614
CTETRA      8813       1    2733    2734    2745     616
CTETRA      8814       1    3423    1537     590     245
CTETRA      8815       1     357     904     591     592
CTETRA      8816       1     906     591     115     592
CTETRA      8817       1    2732    1001     999     501
CTETRA      8818       1    2761    2764    2763     804
CTETRA      8819       1    3982    1636    3356     904
CTETRA      8820       1    3898    3899    2205    2762
CTETRA      8821       1    1153    1157     589     590
CTETRA      8822       1    2205    2206    2211     781
CTETRA      8823       1    3097    1151    1144    1150
CTETRA      8824       1    3422    1157     590     116
CTETRA      8825       1    2760    2761    2763     805
CTETRA      8826       1    1429     639     638     677
CTETRA      8827       1    1072     781     652     806
CTETRA      8828       1    3101    1111    3103    1102
CTETRA      8829       1    3139     874     600    1100
CTETRA      8830       1    3900    2762    2763     280
CTETRA      8831       1    1043    1044     675     679
CTETRA      8832       1    2368    1098    1050     639
CTETRA      8833       1     638    1050    1098     639
CTETRA      8834       1    2367    2373    2369    1050
CTETRA      8835       1    3752    2775    1412    2776
CTETRA      8836       1    1417    1418    1420     676
CTETRA      8837       1    3753    3754    1418    2775
CTETRA      8838       1    1429    1433    1432     639
CTETRA      8839       1    2368    2370    1098     639
CTETRA      8840       1    3722    2726    1182    2727
CTETRA      8841       1    3341    1165    1166     467
CTETRA      8842       1    3757    1435    2370     639
CTETRA      8843       1    3757    1434    1435     639
CTETRA      8844       1    2724    2726    2725    1073
CTETRA      8845       1    2306    2509     691    1007
CTETRA      8846       1     691    1099     842     846
CTETRA      8847       1    2750    2772    2751     996
CTETRA      8848       1    1391     842    1394     846
CTETRA      8849       1    3747    1190    1188    2780
CTETRA      8850       1    3751    1415    2774    2776
CTETRA      8851       1    2182    2183    2185     193
CTETRA      8852       1    1179    3014    1193     485
CTETRA      8853       1    2993    2994    3013    1064
CTETRA      8854       1    2509    2529     691    1099
CTETRA      8855       1     772     949     774     795
CTETRA      8856       1    3813    2510    2305    1099
CTETRA      8857       1    2796    2797    2809     949
CTETRA      8858       1    2996    3003    3001     994
CTETRA      8859       1    3813    1392    2510    1099
CTETRA      8860       1    3740    3741    1200    2800
CTETRA      8861       1    2785    2797     772     795
CTETRA      8862       1    1186     505    1198     958
CTETRA      8863       1    3740    1200    1185    2800
CTETRA      8864       1    1544     172     134     139
CTETRA      8865       1    3741    1200    2800    2801
CTETRA      8866       1     172     136     134     139
CTETRA      8867       1    2974    2978     506     883
CTETRA      8868       1    3680    1679     136     139
CTETRA      8869       1    3678    1709     929     136
CTETRA      8870       1    1679     134     136     139
CTETRA      8871       1     208     136     134     932
CTETRA      8872       1    1694     208    1709     136
CTETRA      8873       1    3678     929     896     136
CTETRA      8874       1     896     929     400     932
CTETRA      8875       1     731     736     840     737
CTETRA      8876       1    1741     414     158     416
CTETRA      8877       1    1712    1727     416     745
CTETRA      8878       1    1728     398     420     745
CTETRA      8879       1    2827    2829    2828     330
CTETRA      8880       1    3820    2505    2318     394
CTETRA      8881       1     416     110     466     100
CTETRA      8882       1    2832    2898    2895    1088
CTETRA      8883       1    3832    3833    2620     103
CTETRA      8884       1     416     466     745     100
CTETRA      8885       1    2272     477     704    1060
CTETRA      8886       1     420     119     421     285
CTETRA      8887       1    2619     105     862    1016
CTETRA      8888       1    1323    2899    1326     765
CTETRA      8889       1    2321     550    2622     551
CTETRA      8890       1    4280    3600    4281    1611
CTETRA      8891       1    1587     171      43     141
CTETRA      8892       1    1880    1022    1881      38
CTETRA      8893       1    1022     294      38    1021
CTETRA      8894       1    3622     137     543    1024
CTETRA      8895       1    3987    3988    2025    2844
CTETRA      8896       1      43      38     171     294
CTETRA      8897       1    1769    1784    1077     733
CTETRA      8898       1    1881    1061     441      38
CTETRA      8899       1      97      88      91      86
CTETRA      8900       1      91      88      93      86
CTETRA      8901       1    3614    2262     895      97
CTETRA      8902       1    4244    1302    1299     851
CTETRA      8903       1    1295    1299     851     853
CTETRA      8904       1    2881    1085     303     851
CTETRA      8905       1    1291    1295    1294     618
CTETRA      8906       1    4272    3614    1624      97
CTETRA      8907       1    3995    2069    2071    2893
CTETRA      8908       1    3415    4286    1154     172
CTETRA      8909       1    3996    3997    2074    2872
CTETRA      8910       1    2072    2074    1006     884
CTETRA      8911       1    3666    2842     859    1034
CTETRA      8912       1    3833    2308    2620     103
CTETRA      8913       1    3342     101     103     201
CTETRA      8914       1     742    1078     744     915
CTETRA      8915       1    1624     868      88     649
CTETRA      8916       1    3615    2256    2262      97
CTETRA      8917       1    4263    4264    2027     850
CTETRA      8918       1    4210    1216    1215    3048
CTETRA      8919       1    1741    1757    1756     414
CTETRA      8920       1    2841    2842    2909    1107
CTETRA      8921       1    4272      96    3615      97
CTETRA      8922       1    4208    1215    1205    3054
CTETRA      8923       1    2611    2616    2612     265
CTETRA      8924       1    2969    2989    2970     209
CTETRA      8925       1    4241    4242    1293    2922
CTETRA      8926       1     762     984     945     693
CTETRA      8927       1    1352    1066    1354     945
CTETRA      8928       1    2478    1067    1052     465
CTETRA      8929       1    2449    2450    1067    1052
CTETRA      8930       1    3296    3300    3302     783
CTETRA      8931       1    1052     465     782     975
CTETRA      8932       1     428     763     693    1003
CTETRA      8933       1    2450    2478    1067    1052
CTETRA      8934       1    2630     567     565     569
CTETRA      8935       1    4003    4004    2050    2935
CTETRA      8936       1    2041    2042    2047    1117
CTETRA      8937       1    3080     326     325     332
CTETRA      8938       1    1716    1732    1731     989
CTETRA      8939       1    2681     935    2684     815
CTETRA      8940       1    1248    1263    1262     568
CTETRA      8941       1    3022     325    3077     502
CTETRA      8942       1    3718    2645    1264    2646
CTETRA      8943       1    1073     768     769     770
CTETRA      8944       1    3035     335     325     334
CTETRA      8945       1    2705    2713    2714     800
CTETRA      8946       1    2626    2648    2647     854
CTETRA      8947       1    4230    2940    1269    2953
CTETRA      8948       1    1229    1237    3024    1104
CTETRA      8949       1    4231    1247    1261    2944
CTETRA      8950       1    2645    2647    2648     854
CTETRA      8951       1    3023    3024    3081     325
CTETRA      8952       1    1240     682     325    1104
CTETRA      8953       1    3475     718    1583    1128
CTETRA      8954       1    3384    3548    1664     986
CTETRA      8955       1     361     983     819     719
CTETRA      8956       1    2703    2704    2714     688
CTETRA      8957       1    3474     721    2297     719
CTETRA      8958       1    2911     415    2933    1053
CTETRA      8959       1    1955    1956    1967     204
CTETRA      8960       1    2957     936    2960     937
CTETRA      8961       1    2009    2012    2011     936
CTETRA      8962       1    2017    2018    2020    1053
CTETRA      8963       1    1091    1054     713    1053
CTETRA      8964       1     721     382     719     190
CTETRA      8965       1    1892     819    1893     190
CTETRA      8966       1    1907    1908    1584     190
CTETRA      8967       1     606     926     601     603
CTETRA      8968       1    1877     720     819     820
CTETRA      8969       1    2639    2640    2641     602
CTETRA      8970       1    2030    2036    2035    1054
CTETRA      8971       1    4006    2035    2041    2936
CTETRA      8972       1    2810    1130    2811     952
CTETRA      8973       1    1700    1716    1715     114
CTETRA      8974       1    2798    2799    2817     506
CTETRA      8975       1    3052    3058    3062     204
CTETRA      8976       1    4035    4036    1925    2990
CTETRA      8977       1     774     949     951     947
CTETRA      8978       1    1130     992    1145    1146
CTETRA      8979       1    2983     950    1145     952
CTETRA      8980       1    1925    1926    1959    1125
CTETRA      8981       1    2978     950    2983     952
CTETRA      8982       1    2631    2641    2642     563
CTETRA      8983       1    2629    2630    2653     569
CTETRA      8984       1    2978    2980     506     952
CTETRA      8985       1    3680    1679    1694     136
CTETRA      8986       1    1958    3061    2970     209
CTETRA      8987       1    1937    1938    1943     992
CTETRA      8988       1    2949    2956    2960     937
CTETRA      8989       1    3433    2259     254     636
CTETRA      8990       1    3433    2259    2261     254
CTETRA      8991       1    3433    3434    1552     894
CTETRA      8992       1    3464    1592     207    1137
CTETRA      8993       1    2575    2633    2637     822
CTETRA      8994       1    2916    2917    2923     668
CTETRA      8995       1    4033    4034    1959    2989
CTETRA      8996       1    2861    2916    2923     668
CTETRA      8997       1     668     822     669     823
CTETRA      8998       1    4291    1590    1096    1042
CTETRA      8999       1     448     449     207     450
CTETRA      9000       1    4291    2284     207    1096
CTETRA      9001       1    2975    3008    3007     958
CTETRA      9002       1    1194    3005    3009     958
CTETRA      9003       1    1816     370    1831     377
CTETRA      9004       1    2799    2800     771     505
CTETRA      9005       1     821     260     537     375
CTETRA      9006       1    3452     987    1568     828
CTETRA      9007       1    3451     378    1567     377
CTETRA      9008       1     683    1103    1043     679
CTETRA      9009       1    4192    2851    3017    1044
CTETRA      9010       1    3451     381     378     377
CTETRA      9011       1     370     378     987     986
CTETRA      9012       1    1075     377     370     375
CTETRA      9013       1     381     378     377     375
CTETRA      9014       1    1528     987     378     986
CTETRA      9015       1    2950     695     814     341
CTETRA      9016       1    3382    1528    1531    1086
CTETRA      9017       1    2770     188    1109     674
CTETRA      9018       1    2770    2772     188     674
CTETRA      9019       1    2846     994    2847     194
CTETRA      9020       1    2753    2793    2792     488
CTETRA      9021       1    4195    1413    3016    3018
CTETRA      9022       1    1410    1411    1416    1044
CTETRA      9023       1    3100    3103     995    1102
CTETRA      9024       1    1919    2791     191     189
CTETRA      9025       1    3012    3013    3014     876
CTETRA      9026       1     188     673     674     877
CTETRA      9027       1    4048    2183    1921    3107
CTETRA      9028       1    4194    3016    1413    1040
CTETRA      9029       1    2939    2952    2954     856
CTETRA      9030       1    3704    2574    1285    2590
CTETRA      9031       1    3430    1558     797     810
CTETRA      9032       1    3435     705    1556    1138
CTETRA      9033       1    1109     188     995     674
CTETRA      9034       1     712    1143     878     927
CTETRA      9035       1    2570    2571    2735     333
CTETRA      9036       1     694    1047     518     696
CTETRA      9037       1    1295    1299    1298     851
CTETRA      9038       1    2576     669     822     823
CTETRA      9039       1    1109     674     995    1102
CTETRA      9040       1    3455    1513     181     497
CTETRA      9041       1    2627    2647    2643     855
CTETRA      9042       1    3455     181    1572     291
CTETRA      9043       1     333    1097     344     336
CTETRA      9044       1    1270     855     517     507
CTETRA      9045       1    1270    1271    1274     855
CTETRA      9046       1     496     497     178     444
CTETRA      9047       1    1247     856    2944     568
CTETRA      9048       1    3454    1514    3455     497
CTETRA      9049       1    1513     910     181     497
CTETRA      9050       1    2576    2584    2577    1081
CTETRA      9051       1     475     910     497     180
CTETRA      9052       1    3469     227    1586     225
CTETRA      9053       1    4020    3039    1998    3041
CTETRA      9054       1    2534     967    2535     796
CTETRA      9055       1    2103    2535    2537     967
CTETRA      9056       1     441     227     171     294
CTETRA      9057       1    2115    2550    2118     796
CTETRA      9058       1    2625    2672    2673     699
CTETRA      9059       1     442     292     227     295
CTETRA      9060       1    2298    2299     292     227
CTETRA      9061       1    1814     374     547    1112
CTETRA      9062       1    4025    4026    1980    3046
CTETRA      9063       1    4024    1979    3045    3046
CTETRA      9064       1    3038    3044    3043     990
CTETRA      9065       1     999     614     616     501
CTETRA      9066       1    1922    1974    1973    1013
CTETRA      9067       1    2571    2673    2674     344
CTETRA      9068       1    3377     544    1527     546
CTETRA      9069       1    4022    4023    1974    3047
CTETRA      9070       1    1575    1112     546    1074
CTETRA      9071       1    2737     999    1001     998
CTETRA      9072       1    2694     800    2713     992
CTETRA      9073       1    3058    3060    3059     203
CTETRA      9074       1    3450    1527     381     546
CTETRA      9075       1    3377     545     544     546
CTETRA      9076       1     751     546     525    1112
CTETRA      9077       1    2969    2970    3059     209
CTETRA      9078       1    3449     525     546    1112
CTETRA      9079       1    2012     936     935     933
CTETRA      9080       1    1232    2729    2721     332
CTETRA      9081       1    1222    1108    1228     504
CTETRA      9082       1    3071    3076    3078    1108
CTETRA      9083       1    1429    1433     639     677
CTETRA      9084       1    3064     790    1108    1093
CTETRA      9085       1    3069     211    1093     657
CTETRA      9086       1    1431    1050     320     482
CTETRA      9087       1    3127     946     638     872
CTETRA      9088       1    2378    1050    1098    1037
CTETRA      9089       1    2382     539     478     359
CTETRA      9090       1    3091    3130     319     478
CTETRA      9091       1     299     478     539     359
CTETRA      9092       1    3129    3132    3131    1038
CTETRA      9093       1    1423     482     320     483
CTETRA      9094       1    3851    2535    2118    2550
CTETRA      9095       1    1182    1254    1257     979
CTETRA      9096       1    2950     338     695     341
CTETRA      9097       1    1253    1254    1259     979
CTETRA      9098       1    2649    1124    2651     568
CTETRA      9099       1    2570    2725    1073     333
CTETRA      9100       1    1182    2727    2726    1073
CTETRA      9101       1    2158    3293     219     146
CTETRA      9102       1    3288     219    3293     146
CTETRA      9103       1    2190    2192    3109     806
CTETRA      9104       1    2077    3293    3291     219
CTETRA      9105       1    2078    2159     219     123
CTETRA      9106       1    1180    1413     875    1040
CTETRA      9107       1    2207    3124    3123     652
CTETRA      9108       1    1413    3016    3018    1040
CTETRA      9109       1    2854    2950    2855     338
CTETRA      9110       1    2189     806     280     804
CTETRA      9111       1    1179    1180    1413     875
CTETRA      9112       1    4059    3123    3122     988
CTETRA      9113       1    2992    3012     875     876
CTETRA      9114       1    2992     875    3010     672
CTETRA      9115       1    3807    1377    1372    2501
CTETRA      9116       1    4059    2213    3123     988
CTETRA      9117       1    3012    3018     875     876
CTETRA      9118       1    3114     319     318     483
CTETRA      9119       1    1179     875    3018     876
CTETRA      9120       1    1630     709     585     710
CTETRA      9121       1    3618    2258      90     583
CTETRA      9122       1    3090    3136    3133     610
CTETRA      9123       1    2257    2258     583    1139
CTETRA      9124       1    3132    3133    3135    1140
CTETRA      9125       1     709     578     577      92
CTETRA      9126       1    2327    2380    2379     780
CTETRA      9127       1    4270    3618    1628      92
CTETRA      9128       1    3619     709    2253     583
CTETRA      9129       1    4191    3116    2851     675
CTETRA      9130       1    4188    4189    1429    3115
CTETRA      9131       1    4270    3619    3618     583
CTETRA      9132       1    1064     486     488    1141
CTETRA      9133       1    1425    1426    1430     675
CTETRA      9134       1    3097     946    3127    1151
CTETRA      9135       1    2189     806    2194     280
CTETRA      9136       1    3124     650    3134     651
CTETRA      9137       1    2796     772    2797     949
CTETRA      9138       1    2569    2625    2570     337
CTETRA      9139       1    2198    2430    2204     409
CTETRA      9140       1    4081    3151    3082     133
CTETRA      9141       1     900     976     192    1122
CTETRA      9142       1    1256    3032    3031     770
CTETRA      9143       1    2419    2436    2438     663
CTETRA      9144       1    3034     335    3035     336
CTETRA      9145       1    1184    1104    3024     770
CTETRA      9146       1    4068    4069    2231    3174
CTETRA      9147       1    2234     817    1133     758
CTETRA      9148       1    2356    1135     754    1133
CTETRA      9149       1    3024    1104     335     770
CTETRA      9150       1    1253    1257    1254     979
CTETRA      9151       1    3026     767     769    1097
CTETRA      9152       1     517     767     854     978
CTETRA      9153       1    1254    1260    1259     768
CTETRA      9154       1    1473    1480    1479     864
CTETRA      9155       1    3779    3780    1467    2424
CTETRA      9156       1    4065    4066    2229    3179
CTETRA      9157       1    1255    3031    1260     768
CTETRA      9158       1    3034    1097     769     336
CTETRA      9159       1    4069    2232    3174    3181
CTETRA      9160       1    4068    3174    2231    3180
CTETRA      9161       1    1898      60     232     225
CTETRA      9162       1    2234    2236    1136     817
CTETRA      9163       1    1135    1133     817     758
CTETRA      9164       1    1898     232    1914     225
CTETRA      9165       1    1914     232    1581     225
CTETRA      9166       1    3176    3177    3178     757
CTETRA      9167       1    2385    2386    2389     809
CTETRA      9168       1    1898      59      60     225
CTETRA      9169       1    3121    3122    3136     612
CTETRA      9170       1    3088    3089    3176     787
CTETRA      9171       1    2345    2363    2362     754
CTETRA      9172       1    3469    1581     522     225
CTETRA      9173       1    2230    3180    2231     758
CTETRA      9174       1    3529    1913    1581    1586
CTETRA      9175       1    2346    2361    2347     670
CTETRA      9176       1    2249    2250    2353     755
CTETRA      9177       1    3199     540    3201     471
CTETRA      9178       1    1453     299     539     300
CTETRA      9179       1    3485    3486    1686    1539
CTETRA      9180       1    1912    1913    1586     225
CTETRA      9181       1    1408    1455    1457     321
CTETRA      9182       1    1407    1408    1457     483
CTETRA      9183       1    2536    2539     460     967
CTETRA      9184       1    1472    1478    1477     667
CTETRA      9185       1    4177    1476    1482    3203
CTETRA      9186       1    1482    3203     665     471
CTETRA      9187       1    3327     717     885    1003
CTETRA      9188       1    1503    3200    3198     470
CTETRA      9189       1    2081     311     885     664
CTETRA      9190       1     666     671     665     538
CTETRA      9191       1    2539    2540     460     967
CTETRA      9192       1    2229    2247    2246     757
CTETRA      9193       1    1477     667    1483     471
CTETRA      9194       1     885     967     460     717
CTETRA      9195       1    3186    3187    3199     470
CTETRA      9196       1    2412    2415    2416     594
CTETRA      9197       1    2973     795     774     883
CTETRA      9198       1    4175    4176    1488    3202
CTETRA      9199       1     191     776     777    1076
CTETRA      9200       1    3401    3402    1512     627
CTETRA      9201       1    3002     776     774     795
CTETRA      9202       1    3002    1141     776     795
CTETRA      9203       1    1929    1932    1930     773
CTETRA      9204       1    3519    1810    1809    1579
CTETRA      9205       1     774     795     949     883
CTETRA      9206       1    2797     949     883     947
CTETRA      9207       1    3083     192    3084     169
CTETRA      9208       1    4126    4127    1402    2839
CTETRA      9209       1    3084     192     976    1122
CTETRA      9210       1    4113    2146    2143    2829
CTETRA      9211       1    2337    2435    2432     900
CTETRA      9212       1    3823    3824    2307     279
CTETRA      9213       1    1379    1380    1382     969
CTETRA      9214       1    3211    3212    3241     846
CTETRA      9215       1    2143    2826    2829     329
CTETRA      9216       1    2162    2163    2175     133
CTETRA      9217       1     801     192     900     976
CTETRA      9218       1    2497    2498    2548     689
CTETRA      9219       1    2156     268    2162     801
CTETRA      9220       1    3328     785    3329     693
CTETRA      9221       1    2162     801     268     192
CTETRA      9222       1    2445    2469    2446    1003
CTETRA      9223       1     885     664     311    1003
CTETRA      9224       1    2483    2485    2484     252
CTETRA      9225       1    3209    3250    3252     885
CTETRA      9226       1    2163    3153    3152     268
CTETRA      9227       1    2081    2087    2082     311
CTETRA      9228       1    2270      67     360     235
CTETRA      9229       1    2541     609    1003    1127
CTETRA      9230       1    2532    2541     717    1127
CTETRA      9231       1    3206    3207    3332     646
CTETRA      9232       1    4097    4098    2082    3252
CTETRA      9233       1    3438     956     235      94
CTETRA      9234       1    3462     966    1525     331
CTETRA      9235       1    4098    2111    3252    3253
CTETRA      9236       1    1525     575     598     331
CTETRA      9237       1    3463     530    1577     599
CTETRA      9238       1     916     530     331     599
CTETRA      9239       1    4141    4142    1367    3323
CTETRA      9240       1    3574    3662    3661     292
CTETRA      9241       1    1359     863    1373    1147
CTETRA      9242       1    2554     643    2557     993
CTETRA      9243       1    3660    2299     442     292
CTETRA      9244       1    3852    2103    2118    2535
CTETRA      9245       1    3574    1643    1676     292
CTETRA      9246       1    4159    1445    1444    3277
CTETRA      9247       1    1643     292     442     634
CTETRA      9248       1    2034    2840    2040     879
CTETRA      9249       1    4158    4159    1444    3278
CTETRA      9250       1    1801    1816     377     828
CTETRA      9251       1    3451     381    1531     378
CTETRA      9252       1    1474    1475    1481    1033
CTETRA      9253       1    3451    1564     381     377
CTETRA      9254       1    2089    2090    3292     199
CTETRA      9255       1    3607    2266     446     730
CTETRA      9256       1    4089    3265    2089    3292
CTETRA      9257       1    2263      57    2265     797
CTETRA      9258       1    1334    1348    3306     782
CTETRA      9259       1     731     447     213     559
CTETRA      9260       1    1612    1614     839     738
CTETRA      9261       1    1352    1356    1354    1066
CTETRA      9262       1    4090    4091    2102    3316
CTETRA      9263       1    4278    1614    3605     839
CTETRA      9264       1     560     838     213     401
CTETRA      9265       1     275     276    1120     735
CTETRA      9266       1     738     735     509    1092
CTETRA      9267       1     730    1120    1059     735
CTETRA      9268       1    2265     839    2266    1059
CTETRA      9269       1    2078     219     197     123
CTETRA      9270       1    3295    3299    3300     944
CTETRA      9271       1    2095    2098    2097     228
CTETRA      9272       1     199     200     198     234
CTETRA      9273       1    2090     197     199     200
CTETRA      9274       1    1113    1118     927     669
CTETRA      9275       1    2031    2662    2037     713
CTETRA      9276       1    2931    1143    1091    1054
CTETRA      9277       1    1349    3298    3309     762
CTETRA      9278       1    2052    2667    2668     339
CTETRA      9279       1     311     252     633    1003
CTETRA      9280       1     711     712    1091     878
CTETRA      9281       1    2444    2445     428     693
CTETRA      9282       1    3401    3826    3402     273
CTETRA      9283       1    3402    3403    1512     627
CTETRA      9284       1    1823    1839    1838     920
CTETRA      9285       1    1883    1899    1898      60
CTETRA      9286       1    2661    2665    1113     897
CTETRA      9287       1    2929    1091    2931    1143
CTETRA      9288       1    2927    2929    1143     927
CTETRA      9289       1     720     821     383     749
CTETRA      9290       1    3402    3825    3403     273
CTETRA      9291       1    3139    1152    1100     871
CTETRA      9292       1    1891     820    1892     911
CTETRA      9293       1    3826     352    2821     350
CTETRA      9294       1    3447     353    1406     277
CTETRA      9295       1    3989    3990    2040    2840
CTETRA      9296       1    3989    2040    2034    2840
CTETRA      9297       1    1822    1838     395     195
CTETRA      9298       1    3400    3401    1508    1008
CTETRA      9299       1    2294     112    2295     718
CTETRA      9300       1    1746     356      82     357
CTETRA      9301       1    4271    3616    1626      90
CTETRA      9302       1    3612    2261    2259     254
CTETRA      9303       1    2268    2269      67     956
CTETRA      9304       1    1779      84      89     640
CTETRA      9305       1    3612    3613    2261     895
CTETRA      9306       1     356      82      81      77
CTETRA      9307       1    1731      82     906     357
CTETRA      9308       1     503     326     678     790
CTETRA      9309       1    4257     143     152     144
CTETRA      9310       1    1467    1473    2424     865
CTETRA      9311       1    3778    1473    1479    2393
CTETRA      9312       1    3382    1662     368    1086
CTETRA      9313       1    1075     821     537     375
CTETRA      9314       1    3563    3638    3564    1657
CTETRA      9315       1    1729    1730      78     747
CTETRA      9316       1    3564    1657    3638     789
CTETRA      9317       1    3478    2285    2283    1096
CTETRA      9318       1     541     542     934     727
CTETRA      9319       1    1730      82      78     238
CTETRA      9320       1    1863    1864    1879     412
CTETRA      9321       1    3778    3779    1473    2393
CTETRA      9322       1     964      80      69      82
CTETRA      9323       1     906     357      82     591
CTETRA      9324       1    2394    2411    2408     864
CTETRA      9325       1     142     222     360      76
CTETRA      9326       1    1809    1810    1825     588
CTETRA      9327       1    1604     355     964     125
CTETRA      9328       1    3477    1591    1580    1017
CTETRA      9329       1     791     911     792    1017
CTETRA      9330       1    3564    3636    3565    1659
CTETRA      9331       1    3565    3634    3566    1661
CTETRA      9332       1    3520    1578    1810    1579
CTETRA      9333       1    4257     152    3672     151
CTETRA      9334       1    4276    3609    3608     239
CTETRA      9335       1    1730     747     746     238
CTETRA      9336       1    1606     355     142      80
CTETRA      9337       1     143     147     220     144
CTETRA      9338       1    3427    1535     917     597
CTETRA      9339       1    1723     212    1095     314
CTETRA      9340       1    3365    1174    1173     511
CTETRA      9341       1      43     171      38     141
CTETRA      9342       1    1171     511    1173     917
CTETRA      9343       1    1631    1636    1635     710
CTETRA      9344       1    1485    2410    2411     864
CTETRA      9345       1    1325    1327    1328     779
CTETRA      9346       1    2984     774     951     947
CTETRA      9347       1    1686     115     590     245
CTETRA      9348       1    2811     952     948     947
CTETRA      9349       1    3052    3067    3069     211
CTETRA      9350       1    1944    1951    1130    1145
CTETRA      9351       1    3422    1157    1153     590
CTETRA      9352       1    1954    2803    2696    1130
CTETRA      9353       1    2897    1014     764    1071
CTETRA      9354       1    3352    3353    1157     367
CTETRA      9355       1    2897     266     265     267
CTETRA      9356       1    3352     367    1157     909
CTETRA      9357       1    3354    1153    1157     589
CTETRA      9358       1    1629     430    1636     585
CTETRA      9359       1     264     862     266     265
CTETRA      9360       1    1107     264     596     862
CTETRA      9361       1    2902    1034     524    1107
CTETRA      9362       1    2903     266     524    1014
CTETRA      9363       1     264     596     862     265
CTETRA      9364       1    1681    1547    1682     461
CTETRA      9365       1    3831    2618    2322     550
CTETRA      9366       1    2906    1107    2909     266
CTETRA      9367       1    2897    2906     266     267
CTETRA      9368       1    3342     860     103     101
CTETRA      9369       1    3363      61    1623      62
CTETRA      9370       1    3976    3364    3977    1621
CTETRA      9371       1     511     366     775      62
CTETRA      9372       1    3834    2308     103     553
CTETRA      9373       1    1690    1536    1083     248
CTETRA      9374       1    3832    2620    2618     103
CTETRA      9375       1    2308    2620     103     553
CTETRA      9376       1    3368    3369    1178     918
CTETRA      9377       1     103     860     553     104
CTETRA      9378       1    3737    2813    1211    2814
CTETRA      9379       1    3090    3192    3173     359
CTETRA      9380       1    3834     103     860     553
CTETRA      9381       1    1835    1851    1850     153
CTETRA      9382       1    2245    2385    2384     371
CTETRA      9383       1    1758     421     398     556
CTETRA      9384       1    1644    1648     901     899
CTETRA      9385       1     398     556     421     387
CTETRA      9386       1    1238    1239    1242     332
CTETRA      9387       1     521     109     108       3
CTETRA      9388       1     214     216     387     217
CTETRA      9389       1    3070    3071    3078    1108
CTETRA      9390       1    1225    2710    2709    1010
CTETRA      9391       1    1222    1223    1228     656
CTETRA      9392       1    1222    1010    1108     504
CTETRA      9393       1    1728     398    1743     420
CTETRA      9394       1    1108     658     503    1010
CTETRA      9395       1    1757     414     421     418
CTETRA      9396       1    1756     414    1757     418
CTETRA      9397       1    1814     547     751    1112
CTETRA      9398       1     379    1086     378     375
CTETRA      9399       1     372     537     373     375
CTETRA      9400       1    1531     379    1086     378
CTETRA      9401       1    1531     381     379     378
CTETRA      9402       1    1528    1531    1086     378
CTETRA      9403       1    2856     517    2951     507
CTETRA      9404       1    1564     381     377    1074
CTETRA      9405       1    1255    1256    3031     770
CTETRA      9406       1    1230    1231    1243     681
CTETRA      9407       1    2672     695     338     341
CTETRA      9408       1    3451    1567    1564     377
CTETRA      9409       1    3838    2147    3818    2319
CTETRA      9410       1    4225    1266    1260    3029
CTETRA      9411       1    3450    1520    3451     381
CTETRA      9412       1      58      59     635      12
CTETRA      9413       1    2299    2300     981     227
CTETRA      9414       1    3468     522    1581     232
CTETRA      9415       1    1262    1263    1275    1124
CTETRA      9416       1    2280     981    2300     522
CTETRA      9417       1    3713    3714    1275    2651
CTETRA      9418       1    2280     226      21     522
CTETRA      9419       1    3468     226     522     232
CTETRA      9420       1    3042    3043    3047    1013
CTETRA      9421       1     844     723     279     306
CTETRA      9422       1     990    1013    1000     998
CTETRA      9423       1    3712    1263    1249    2650
CTETRA      9424       1    1263    2651    1124     568
CTETRA      9425       1    1981     990     999     998
CTETRA      9426       1    2634    2635    2650     567
CTETRA      9427       1    2649    2651    2650     568
CTETRA      9428       1    1984     999    2736     998
CTETRA      9429       1    1973     345    1013     998
CTETRA      9430       1    2573    2736    2737     998
CTETRA      9431       1    1886    1887    1902     389
CTETRA      9432       1    2282     448     205     207
CTETRA      9433       1    1984    2736    1986     998
CTETRA      9434       1    3021    3066     625     790
CTETRA      9435       1    2738     333    1001     334
CTETRA      9436       1    1278    2920    1287     603
CTETRA      9437       1    3641    1051    1028    1096
CTETRA      9438       1    4239    1287    1278    2920
CTETRA      9439       1    2723    2740     684     334
CTETRA      9440       1    3990    3991    2046    2907
CTETRA      9441       1    2724     333    2731     334
CTETRA      9442       1    2636    2637    2642     601
CTETRA      9443       1    2636    2642    2640     602
CTETRA      9444       1    2732    2740     334     501
CTETRA      9445       1    4247    4248    1311    2887
CTETRA      9446       1    2731     333    2738     334
CTETRA      9447       1    4249    1317    1314    2886
CTETRA      9448       1    4119    3219     271     272
CTETRA      9449       1    1834    1850    1849     177
CTETRA      9450       1    1313    1314    1317     297
CTETRA      9451       1    2877    2885    2884     298
CTETRA      9452       1    3448    3576    3658     981
CTETRA      9453       1    1316    1317    1320     297
CTETRA      9454       1    4118     308    4119     271
CTETRA      9455       1    3426    3427    1535     917
CTETRA      9456       1    4254    4255    1327    2835
CTETRA      9457       1     513     515     917     597
CTETRA      9458       1    3440    3441    1563     741
CTETRA      9459       1    1706     513    1083     597
CTETRA      9460       1    1705    1706     513    1083
CTETRA      9461       1    1692    1532     314     597
CTETRA      9462       1    1745    1746    1761     356
CTETRA      9463       1    1329    1056    2836     152
CTETRA      9464       1    4259     135     221     128
CTETRA      9465       1    4257    4256    4301    3672
CTETRA      9466       1    3427     515    1532     597
CTETRA      9467       1    3491    1532    1691    1535
CTETRA      9468       1    3636    2286    2279     789
CTETRA      9469       1    1264    1274    2646     855
CTETRA      9470       1    1259     977    1265     978
CTETRA      9471       1    3641    1028    2284    1096
CTETRA      9472       1    1268    1269    1271     507
CTETRA      9473       1    2855     767    3033     338
CTETRA      9474       1    1264    1270     854     978
CTETRA      9475       1    1267    3030    2857     977
CTETRA      9476       1    2626     338     854     341
CTETRA      9477       1    1259    1266    1265     977
CTETRA      9478       1    2445    2479    2469     693
CTETRA      9479       1    3790    1344    1345    2468
CTETRA      9480       1    2449    2450    2475    1067
CTETRA      9481       1    2472    2478     465     944
CTETRA      9482       1    2074    2872    1006     884
CTETRA      9483       1    1352     783    1066     945
CTETRA      9484       1    2879     884    2891     270
CTETRA      9485       1    2453    2492     218     123
CTETRA      9486       1    2600     270     884     346
CTETRA      9487       1    2867    2891     884     270
CTETRA      9488       1    2069    2872    2074     884
CTETRA      9489       1    2069    2867    2872     884
CTETRA      9490       1    3434    2262    2256      95
CTETRA      9491       1    2066    2068    2072     884
CTETRA      9492       1    1356    2476    1066     943
CTETRA      9493       1    2474    2477    2475     943
CTETRA      9494       1    2069     884    2070     270
CTETRA      9495       1    1134    1135     817     758
CTETRA      9496       1    3794    3795    1354    2476
CTETRA      9497       1    2475    1067    1066     943
CTETRA      9498       1    3181    3185    3182     817
CTETRA      9499       1    1354    2476    2443     945
CTETRA      9500       1    3859    2085    2086    2481
CTETRA      9501       1    3184    1134     817     758
CTETRA      9502       1    3794    1354    1356    2476
CTETRA      9503       1    1371    1375     637     424
CTETRA      9504       1    2342    1149    1135    1136
CTETRA      9505       1    2501    2566    2558     972
CTETRA      9506       1    3396    1675    3540     155
CTETRA      9507       1    2342    2401    1149    1136
CTETRA      9508       1    2500    2501    2558     422
CTETRA      9509       1    3247    3261     463     644
CTETRA      9510       1    3806    2501    1372    2566
CTETRA      9511       1    2238    2402    2343    1136
CTETRA      9512       1    4132    1390    1393    3241
CTETRA      9513       1    3884    2238    2343    1136
CTETRA      9514       1    1440    1446    1450     955
CTETRA      9515       1    3785    3786    1450    2425
CTETRA      9516       1    3884    2343    2355    1136
CTETRA      9517       1    1772     741    1787     835
CTETRA      9518       1    1444    1445    1447    1090
CTETRA      9519       1    1443    3278    1444    1032
CTETRA      9520       1     418     396     835     456
CTETRA      9521       1    3442    1562     396     456
CTETRA      9522       1    3591     740    2275     397
CTETRA      9523       1    4186    4187    1428    3117
CTETRA      9524       1    3615      96    2256      97
CTETRA      9525       1    1403     278     350     277
CTETRA      9526       1    3442    2275     455     396
CTETRA      9527       1    4083    4084    2164    3285
CTETRA      9528       1     631     573     107     118
CTETRA      9529       1    4186    3117    1428     482
CTETRA      9530       1    1407    1424    1423     482
CTETRA      9531       1    1431    1434    1050     639
CTETRA      9532       1    2364    2365    2383     479
CTETRA      9533       1    1742     420    1743     421
CTETRA      9534       1    4184    1407    1457    3093
CTETRA      9535       1    3613    3614    2262     895
CTETRA      9536       1    1742     421     414     285
CTETRA      9537       1    1711    1726     158     416
CTETRA      9538       1    1847     930    1848     383
CTETRA      9539       1    1711    1712     416     256
CTETRA      9540       1    1697    1712     256     259
CTETRA      9541       1    1407    1423    1408     483
CTETRA      9542       1    1712     466     416     259
CTETRA      9543       1    1712     745     416     466
CTETRA      9544       1    3433    2261    3434     894
CTETRA      9545       1    1466    1472    1471     665
CTETRA      9546       1    3013    3015    3014     485
CTETRA      9547       1    1179    3018    3014     876
CTETRA      9548       1    1192    1193    3015     485
CTETRA      9549       1    2993    1064     876    1141
CTETRA      9550       1     575     966     941     331
CTETRA      9551       1    2347     300     670     538
CTETRA      9552       1    1525     966     575     331
CTETRA      9553       1    3187     540     470     469
CTETRA      9554       1     941     331     966     579
CTETRA      9555       1    1477    1483    1482     471
CTETRA      9556       1     888     626     914    1065
CTETRA      9557       1     671     766     670     538
CTETRA      9558       1    1506    1511     750     626
CTETRA      9559       1    1495    1496    3148     600
CTETRA      9560       1    1506     575    1525     966
CTETRA      9561       1    2413    2414    2415     594
CTETRA      9562       1    3198    3199    3202     471
CTETRA      9563       1    1482    1488    3202     471
CTETRA      9564       1    3147    3155    3159     799
CTETRA      9565       1    3637    3638    2286     789
CTETRA      9566       1    3159    3160    3162     659
CTETRA      9567       1    3461    3462    1573     966
CTETRA      9568       1     556     833     186     741
CTETRA      9569       1    3439     186    1549     187
CTETRA      9570       1    1486    1500    1498     660
CTETRA      9571       1    2271     360     222     235
CTETRA      9572       1      67     956     358      81
CTETRA      9573       1    3439     235     186     187
CTETRA      9574       1      74     187     186      76
CTETRA      9575       1    1555      94     235     187
CTETRA      9576       1     150     833     186     149
CTETRA      9577       1    3424    3425    1534     246
CTETRA      9578       1    1549     186     741     187
CTETRA      9579       1    1689    1536    1690     248
CTETRA      9580       1    1212    1213    1222     658
CTETRA      9581       1     326     678     790     502
CTETRA      9582       1    3064    3076    1108     326
CTETRA      9583       1    3981    3356    3982    1636
CTETRA      9584       1    2699    2716    2700    1093
CTETRA      9585       1    3063    3071    3072     656
CTETRA      9586       1    1687     243    1702     245
CTETRA      9587       1    1534     243     246     248
CTETRA      9588       1    1718    1026     362     247
CTETRA      9589       1      91     837     868     364
CTETRA      9590       1    1026     837      93     364
CTETRA      9591       1    3680    4292    1679    1544
CTETRA      9592       1    1704      36    1719     366
CTETRA      9593       1    1718    1719    1026     247
CTETRA      9594       1    1907    1128    1583     911
CTETRA      9595       1    1718     247     362     243
CTETRA      9596       1     261     169     146    1123
CTETRA      9597       1    3439    1549    1555     187
CTETRA      9598       1    1759      79    1760      75
CTETRA      9599       1    3283     146    3286    1123
CTETRA      9600       1    2745    2747     624     616
CTETRA      9601       1    2747     624     616     615
CTETRA      9602       1    1971    2746    2747     624
CTETRA      9603       1    3683    1888    1873     449
CTETRA      9604       1    2741     624    2744     893
CTETRA      9605       1    2741    2745     624     616
CTETRA      9606       1    2916     853    2922     607
CTETRA      9607       1    3908    1919    2181    2791
CTETRA      9608       1    2868     832     834     823
CTETRA      9609       1    1291    2591     570     618
CTETRA      9610       1    2656    2664     711     712
CTETRA      9611       1    2576    2633     822     669
CTETRA      9612       1     112     820     111     718
CTETRA      9613       1    3502    1789    1790    1555
CTETRA      9614       1    1905     911    1580    1017
CTETRA      9615       1    1740     414    1756     499
CTETRA      9616       1    1890     792    1891     911
CTETRA      9617       1    1609    1611    1610     400
CTETRA      9618       1    1906    1583    1580     911
CTETRA      9619       1    3588     554     214     150
CTETRA      9620       1    1789    1555    1549     187
CTETRA      9621       1    3503    1788    1789    1549
CTETRA      9622       1    3536    1580    1906    1583
CTETRA      9623       1    1005     791     111    1004
CTETRA      9624       1    3897    2326    2211     653
CTETRA      9625       1    3476    1583     718     911
CTETRA      9626       1    2295     112    2296     718
CTETRA      9627       1    3475    2295    3476     718
CTETRA      9628       1    1321     551    2621    1011
CTETRA      9629       1    2618    2619    2623    1016
CTETRA      9630       1    3239     892    1009     419
CTETRA      9631       1    3213    3238    1009     848
CTETRA      9632       1    2522     691    2529     841
CTETRA      9633       1    2665     712    1113     897
CTETRA      9634       1     711    1091     712     713
CTETRA      9635       1    2522    2525     692     848
CTETRA      9636       1    3442    1060    1557     456
CTETRA      9637       1    3442     455    1060     456
CTETRA      9638       1    2272     455     477    1060
CTETRA      9639       1    2272     704    2274    1060
CTETRA      9640       1    2655    2664    2663     713
CTETRA      9641       1     499    1060     455     456
CTETRA      9642       1    3477    3478    1591     739
CTETRA      9643       1    3754    2331    1421     676
CTETRA      9644       1    1410    1044    3017    1040
CTETRA      9645       1    4192    3017    1416    1044
CTETRA      9646       1    1410    1411    1044     924
CTETRA      9647       1    3633    2296    2295     112
CTETRA      9648       1    4192    1416    1419    1044
CTETRA      9649       1    2851    3098    1044     675
CTETRA      9650       1    3641    2284    2283    1096
CTETRA      9651       1    2850     672    3017    1044
CTETRA      9652       1    3098    1043    1044     675
CTETRA      9653       1    3976    3366    3365    1619
CTETRA      9654       1    1621    1623    1622     868
CTETRA      9655       1     703     840     736     737
CTETRA      9656       1    1735    1736    1751     250
CTETRA      9657       1    3754    2775    2331     676
CTETRA      9658       1    2432    2435    2434     801
CTETRA      9659       1    2155     801    2162     900
CTETRA      9660       1    2197     802     801     409
CTETRA      9661       1    2419     662    2420     661
CTETRA      9662       1    1601    1633    1634      69
CTETRA      9663       1    3982    1635    1636     904
CTETRA      9664       1    1715    1716    1731     746
CTETRA      9665       1     268     801     802     661
CTETRA      9666       1    3896    2217    2223    2381
CTETRA      9667       1    3175    3180    3177     758
CTETRA      9668       1    3982    3354    3983    1635
CTETRA      9669       1    1134    1149    1152     817
CTETRA      9670       1    2345    2362     753     754
CTETRA      9671       1    3659     981    1646     442
CTETRA      9672       1    3172    3189     766     670
CTETRA      9673       1    1808    1824    1823     588
CTETRA      9674       1    2356    1135    2357     754
CTETRA      9675       1    1943    1954    2696    1130
CTETRA      9676       1    1951    1130    1145     950
CTETRA      9677       1    2982    2985    2991    1145
CTETRA      9678       1    2977    2983    1145     952
CTETRA      9679       1    3377    3551    3378     544
CTETRA      9680       1    1945    1951    1145     950
CTETRA      9681       1    2051     339     343    1116
CTETRA      9682       1    1939    1145    1944     991
CTETRA      9683       1    1939    2991    1145     991
CTETRA      9684       1    2983    2985    1145     950
CTETRA      9685       1    3379     544    1658     379
CTETRA      9686       1    1519     156     281     157
CTETRA      9687       1    1846    1847    1862     821
CTETRA      9688       1     395     157     195     898
CTETRA      9689       1    3377    3552    1656     545
CTETRA      9690       1    1808     195    1565     588
CTETRA      9691       1    3458    1565    1570     281
CTETRA      9692       1    1667     481     413     491
CTETRA      9693       1    2531    2532    2561    1142
CTETRA      9694       1    1361    2564    2563     609
CTETRA      9695       1    1799    1575    1800    1074
CTETRA      9696       1    3324    3325    1131    1003
CTETRA      9697       1    3324    1131    3332     646
CTETRA      9698       1    2533     717     967     968
CTETRA      9699       1    3207     714    3249     717
CTETRA      9700       1    1058     385     474     132
CTETRA      9701       1    3385    3547    3386     262
CTETRA      9702       1    3387    1668    3388     827
CTETRA      9703       1    3714    1275    2651    2652
CTETRA      9704       1    3208     717    3327    1127
CTETRA      9705       1     439     436     438     290
CTETRA      9706       1    1824     436    1839     920
CTETRA      9707       1     437     306     315     290
CTETRA      9708       1    3343    1163    1165     468
CTETRA      9709       1      90      91      85      86
CTETRA      9710       1     589     251     590     592
CTETRA      9711       1    1875    1876    1891     792
CTETRA      9712       1    1627    1629    1628     585
CTETRA      9713       1     590     115     591     592
CTETRA      9714       1    3459    1509    3460     629
CTETRA      9715       1    3423    1153    1169     590
CTETRA      9716       1    1703    1719    1718     247
CTETRA      9717       1    3366    1617    3367     512
CTETRA      9718       1    3366    3367    1174     512
CTETRA      9719       1    1275    2651    2652    1124
CTETRA      9720       1    3365    3366    1174     512
CTETRA      9721       1    3459    1508     629     281
CTETRA      9722       1    3367    3368    1167     514
CTETRA      9723       1    3403    1512     627     628
CTETRA      9724       1    1727    1728    1743     420
CTETRA      9725       1    1509    1512     628     629
CTETRA      9726       1     325     334     684     502
CTETRA      9727       1    3587     554     150     152
CTETRA      9728       1    3725    1241    1243     682
CTETRA      9729       1     414     421     418     285
CTETRA      9730       1    3024     335    3028     770
CTETRA      9731       1    2740     684     334     502
CTETRA      9732       1    2723    2728    2730     682
CTETRA      9733       1    1240    1243    1241     682
CTETRA      9734       1    3333     938     202     400
CTETRA      9735       1    2618     550     572     105
CTETRA      9736       1     421     387     224     119
CTETRA      9737       1    1742    1758    1757     421
CTETRA      9738       1    1745    1761    1760     356
CTETRA      9739       1    1630     585    1636     710
CTETRA      9740       1     235      94      75     187
CTETRA      9741       1    1760    1761    1776     957
CTETRA      9742       1    1237    1240    1239     325
CTETRA      9743       1    2270      67     235     956
CTETRA      9744       1    2107    2110     462     967
CTETRA      9745       1    1457     299     483     321
CTETRA      9746       1    3501    1790    1791    1554
CTETRA      9747       1    3501    3502    1790    1554
CTETRA      9748       1    1791    1553    1554     707
CTETRA      9749       1    3437    1554    1553     707
CTETRA      9750       1    1775     957    1791      94
CTETRA      9751       1    1776    1792    1791     707
CTETRA      9752       1    1465     301     300     538
CTETRA      9753       1    1704    1705    1720      36
CTETRA      9754       1     319     479     539     478
CTETRA      9755       1    3425    1536    1534     248
CTETRA      9756       1    3490    3491    1691    1535
CTETRA      9757       1    3490    1691    1690    1535
CTETRA      9758       1    3712    1263    2650    2651
CTETRA      9759       1    1718    1733     362    1026
CTETRA      9760       1    3876    3877    2198    2431
CTETRA      9761       1    2348    2352    2349     300
CTETRA      9762       1    1690    1691    1706     597
CTETRA      9763       1    3877    2430    2198    2431
CTETRA      9764       1    3516    1807    1806    1569
CTETRA      9765       1      21     522     226      12
CTETRA      9766       1    3515    1804    1571     291
CTETRA      9767       1    1518     156    1519     157
CTETRA      9768       1    1806    1822    1821     140
CTETRA      9769       1     426     431    1027     435
CTETRA      9770       1    3651    3652    2289     426
CTETRA      9771       1    1900     388    1901     126
CTETRA      9772       1    2290     431     226    1027
CTETRA      9773       1     630      49     438     315
CTETRA      9774       1    3468     226    2280     522
CTETRA      9775       1    3405    3406    1510     630
CTETRA      9776       1    1840    1856    1855     439
CTETRA      9777       1    3468    2290     226    1027
CTETRA      9778       1    3451    1531    1528     378
CTETRA      9779       1    3379    1658    1660     379
CTETRA      9780       1    1846    1862    1861     821
CTETRA      9781       1    3566    3634    3633     113
CTETRA      9782       1    1056    1088    1015     573
CTETRA      9783       1    1056    1015     882     573
CTETRA      9784       1    2832    1056    2835    1088
CTETRA      9785       1    3471    2298    2302     171
CTETRA      9786       1    1865    1866    1881    1022
CTETRA      9787       1    1322    1326    1088     765
CTETRA      9788       1    2833    2898    1088     765
CTETRA      9789       1    2831    1056    1088    1015
CTETRA      9790       1    1325    1088    1327     779
CTETRA      9791       1    3398    3399    1519     156
CTETRA      9792       1    1327    1088    1056     779
CTETRA      9793       1    3653    3654    2290     431
CTETRA      9794       1    1884    1885    1900      60
CTETRA      9795       1    1884    1900    1899      60
CTETRA      9796       1    3675     560    3676     940
CTETRA      9797       1    3684     655    3685    1062
CTETRA      9798       1    1890     911    1905    1017
CTETRA      9799       1       7      10     176     850
CTETRA      9800       1    3580    1642    1640      48
CTETRA      9801       1    1826    1842    1841     888
CTETRA      9802       1    1825    1826    1841     888
CTETRA      9803       1    3378    3379    1527     544
CTETRA      9804       1    1931     777    1933     994
CTETRA      9805       1    3687     530     536     599
CTETRA      9806       1    2996     777    3003     994
CTETRA      9807       1    1800     377    1815    1074
CTETRA      9808       1    3459     593    1579     588
CTETRA      9809       1    2998    3003     777     776
CTETRA      9810       1    1914    1915    1594     232
CTETRA      9811       1    2998     777    3000     776
CTETRA      9812       1    2996    2999     777     994
CTETRA      9813       1    1933     777    2999     994
CTETRA      9814       1    3527    1914    1915    1594
CTETRA      9815       1    1929    1934     777     773
CTETRA      9816       1    1934    3000     777     776
CTETRA      9817       1    3516    1569    1806    1572
CTETRA      9818       1    2997    2999    3000     777
CTETRA      9819       1    1832    1833     930     931
CTETRA      9820       1    1817    1832     370     931
CTETRA      9821       1     368     370     369     986
CTETRA      9822       1    3051    3069    3063     657
CTETRA      9823       1    1958    1961    1960     209
CTETRA      9824       1     262     829     987     985
CTETRA      9825       1    3696    1309    2608    2609
CTETRA      9826       1    1817     931     828     826
CTETRA      9827       1    4032    1958    1955    3061
CTETRA      9828       1    3876    2198    2154    2431
CTETRA      9829       1     931     178     496     826
CTETRA      9830       1    4120     403    4121     307
CTETRA      9831       1    3684    1859    1874    1062
CTETRA      9832       1    3220     272     309    1046
CTETRA      9833       1    3651     403    3652     426
CTETRA      9834       1      23      66      65      14
CTETRA      9835       1    3220     309     307    1046
CTETRA      9836       1    1974    1978    1981     990
CTETRA      9837       1    1973    1981    1986     998
CTETRA      9838       1     287     439     438     290
CTETRA      9839       1     440      15     920     305
CTETRA      9840       1    4023    4024    1978    3045
CTETRA      9841       1     723      73      63     306
CTETRA      9842       1     216     215     118     217
CTETRA      9843       1     124     128     125     237
CTETRA      9844       1    3104    3108    3110    1111
CTETRA      9845       1    2186    3110    1111    1110
CTETRA      9846       1     128     147     237     120
CTETRA      9847       1    4049    4050    2187    3106
CTETRA      9848       1    2171    2172    2173     133
CTETRA      9849       1    3670     631     554    1056
CTETRA      9850       1    4027    4028    1975    3068
CTETRA      9851       1    4027    1975    3019    3068
CTETRA      9852       1     150     220     149     144
CTETRA      9853       1    2741    2745    2744     624
CTETRA      9854       1    1976    1977    1983     615
CTETRA      9855       1    1516     715     157     140
CTETRA      9856       1    2744     624    2746     893
CTETRA      9857       1    2741    2744    2743     893
CTETRA      9858       1     625     624     790    1093
CTETRA      9859       1    3515    1806    1805     291
CTETRA      9860       1    1513     910    1517     181
CTETRA      9861       1    3455    3456    1572     181
CTETRA      9862       1    2078     123     197     200
CTETRA      9863       1    2023    2313    2314     861
CTETRA      9864       1     219     218     197     123
CTETRA      9865       1    2089    2090     199     200
CTETRA      9866       1    3988    3989    2034    2845
CTETRA      9867       1    2314    2316    2315     861
CTETRA      9868       1     218     198     197     200
CTETRA      9869       1    3301     782     784     465
CTETRA      9870       1    2460     145     464    1123
CTETRA      9871       1    2905    2906    2909     266
CTETRA      9872       1    2025    2845    2034    1084
CTETRA      9873       1     230     811     199     465
CTETRA      9874       1    2310    2313    2311     861
CTETRA      9875       1    2341    1135    1149     866
CTETRA      9876       1    2398    2401    2402    1129
CTETRA      9877       1    3184    1152    3185     817
CTETRA      9878       1    3680    1544    1679     139
CTETRA      9879       1    2343    2402    2401    1136
CTETRA      9880       1    3952    2052    2049    2667
CTETRA      9881       1    2341    1149    2399     866
CTETRA      9882       1    2870    2875    1006     342
CTETRA      9883       1    3954    2058    2668    2669
CTETRA      9884       1    1152    1129     867     817
CTETRA      9885       1    3432    1548     730     417
CTETRA      9886       1    3953    2058    2052    2668
CTETRA      9887       1    3609    2260     239     253
CTETRA      9888       1    2260     239     253     729
CTETRA      9889       1    2259     729     254     636
CTETRA      9890       1    2259     253     254     729
CTETRA      9891       1     729     417     730     242
CTETRA      9892       1    2255     239    2260     729
CTETRA      9893       1     249     417     648     242
CTETRA      9894       1    1184    3032    1256     770
CTETRA      9895       1    2172    2175    2173     133
CTETRA      9896       1    1073     769     333     335
CTETRA      9897       1    3033    3034    3036    1097
CTETRA      9898       1    2732    2737     999    1001
CTETRA      9899       1    1182    1183    1254     768
CTETRA      9900       1    3038     501    1000     336
CTETRA      9901       1    2048    2051    2050    1116
CTETRA      9902       1    1230    1231     681     770
CTETRA      9903       1    2069    2893    2867     270
CTETRA      9904       1    2064    2065    2075    1055
CTETRA      9905       1    4001    2062    2076    2873
CTETRA      9906       1    2570     333    1073    1097
CTETRA      9907       1    3853    3854    2112    2537
CTETRA      9908       1    1231    1073    2726     681
CTETRA      9909       1    3247    3248    3259     993
CTETRA      9910       1    2112    2536    2114     967
CTETRA      9911       1    1438     953    1069    1035
CTETRA      9912       1    1446    1090    1447     955
CTETRA      9913       1    4082    2174    2173    3082
CTETRA      9914       1    1089    1090    1069    1121
CTETRA      9915       1    1069    1101     953    1119
CTETRA      9916       1    1069     953    1121    1119
CTETRA      9917       1    1449     953    2426     955
CTETRA      9918       1    1450    2425    2332     955
CTETRA      9919       1    2425    2442    1089     955
CTETRA      9920       1    3237     642     566     644
CTETRA      9921       1    3851    3852    2118    2535
CTETRA      9922       1    2104    2107    2108     462
CTETRA      9923       1    1105     971     637     993
CTETRA      9924       1    2117    2119    3245     793
CTETRA      9925       1    2554     643     993     968
CTETRA      9926       1    2557     970    1105     993
CTETRA      9927       1     637     424     971     972
CTETRA      9928       1    3247    3248     993     968
CTETRA      9929       1    3236     973     642     644
CTETRA      9930       1    2104     462    2108     793
CTETRA      9931       1    3843    3844    2138    2502
CTETRA      9932       1     463     643     993     644
CTETRA      9933       1    3220     272    1046     434
CTETRA      9934       1    2136    2138     558     701
CTETRA      9935       1    2131    3232    2134     316
CTETRA      9936       1    3843    2502    2141    2503
CTETRA      9937       1    1011    1014    1016    1071
CTETRA      9938       1     550     105     551     573
CTETRA      9939       1    2831    1088    2895    1015
CTETRA      9940       1    1321    2320     551     552
CTETRA      9941       1    2132    2135    2496     558
CTETRA      9942       1    1321    1322     551    1011
CTETRA      9943       1    3410    3580    1640     575
CTETRA      9944       1    2497    2515    2512    1148
CTETRA      9945       1    2606    1011    2624     761
CTETRA      9946       1     105     862    1016    1014
CTETRA      9947       1    1637    1638    1653     454
CTETRA      9948       1    1318    2621    2606    1011
CTETRA      9949       1    1321    2320    2621     551
CTETRA      9950       1    2320    2325    2321     552
CTETRA      9951       1    3829     127     550     135
CTETRA      9952       1    3681    1904    3538    1590
CTETRA      9953       1    3829    2323    2324     135
CTETRA      9954       1    4076    4077    2152    3154
CTETRA      9955       1    3829     550    2323     135
CTETRA      9956       1    3870    3871    2167    2456
CTETRA      9957       1    2321    2323    2322     550
CTETRA      9958       1    2323    2325    2324     552
CTETRA      9959       1     556     741     186     187
CTETRA      9960       1    3440    2277    3441     833
CTETRA      9961       1    4084    2158    3285    3293
CTETRA      9962       1    1772     418     835     456
CTETRA      9963       1     556     186      74     187
CTETRA      9964       1    3440    2267     833     186
CTETRA      9965       1    2267     150    2278     833
CTETRA      9966       1     398     421     420     119
CTETRA      9967       1    2277    2278     216     833
CTETRA      9968       1    3592    3665     282     284
CTETRA      9969       1    4262    1087    4263       7
CTETRA      9970       1     407     404     813     183
CTETRA      9971       1    4264     176     704     850
CTETRA      9972       1    3594    3663    3595     850
CTETRA      9973       1    2272    2276     477     455
CTETRA      9974       1    3595    2272     477     704
CTETRA      9975       1    2848    3001    2992     673
CTETRA      9976       1    4052    3108    2178    3110
CTETRA      9977       1    2508    2526     433     691
CTETRA      9978       1    2503    1019     686     701
CTETRA      9979       1    3102    3106    3107     193
CTETRA      9980       1     434    1099     691     846
CTETRA      9981       1     691     892     841     848
CTETRA      9982       1    2176    2765    2755     803
CTETRA      9983       1    1383    1386    1385     843
CTETRA      9984       1    2145    2148    2149     495
CTETRA      9985       1     892     842     841     419
CTETRA      9986       1    3105    3109    3108     807
CTETRA      9987       1     680     683    1103    1150
CTETRA      9988       1    1385     843    1388     419
CTETRA      9989       1    4054    4055    2190    3109
CTETRA      9990       1     691     842     892     846
CTETRA      9991       1    2195     652    2200     806
CTETRA      9992       1    4054    2190    2192    3109
CTETRA      9993       1    2195    3094     652     806
CTETRA      9994       1    3220     533    3226     434
CTETRA      9995       1    1397    1400     847    1007
CTETRA      9996       1    1009     419     843     423
CTETRA      9997       1    3227     272     434     759
CTETRA      9998       1    1396    3211     846     847
CTETRA      9999       1    4123    4124    2828     549
CTETRA     10000       1    2317    2318    2516    1019
CTETRA     10001       1    2307    2507     824     433
CTETRA     10002       1     845     532     534     313
CTETRA     10003       1    3823    2307     532     279
CTETRA     10004       1    3881    2239    2222    2398
CTETRA     10005       1    2307     824     279     433
CTETRA     10006       1    3881    2398    2222    2423
CTETRA     10007       1    2430    2431    2434     801
CTETRA     10008       1    2397    2400    1129     327
CTETRA     10009       1    3165    3167    3166     268
CTETRA     10010       1    2215    2222    2221    1129
CTETRA     10011       1    3138    3149     600     473
CTETRA     10012       1    3880    2222    2216    2423
CTETRA     10013       1    2506     534    2507    1048
CTETRA     10014       1    4071    4072    2220    3182
CTETRA     10015       1     867     327    1129     871
CTETRA     10016       1    3139     600    3146     871
CTETRA     10017       1    2208    2215    2214     867
CTETRA     10018       1    3841    2144    2149    2504
CTETRA     10019       1    1152    1149     866    1100
CTETRA     10020       1    2507    1048     534     824
CTETRA     10021       1    3822     845     532     534
CTETRA     10022       1     309    1046     272     310
CTETRA     10023       1    2232    3174    3181     817
CTETRA     10024       1    3140    3185    1152     867
CTETRA     10025       1    3681    1592    1918    1042
CTETRA     10026       1    2514    2517    1048     686
CTETRA     10027       1    3682    3683    1889    1063
CTETRA     10028       1    3512    1802    1801    1567
CTETRA     10029       1    1134    1149    1135     866
CTETRA     10030       1     905     687     685     692
CTETRA     10031       1    2238    1129    2402    1136
CTETRA     10032       1    2139     702    2142     701
CTETRA     10033       1    3140     867    1152     871
CTETRA     10034       1    3140    3145    3141     867
CTETRA     10035       1    3891    2385    2240    2386
CTETRA     10036       1    1048     700     824     687
CTETRA     10037       1    2141    2503    2502     701
CTETRA     10038       1    3171     756    3172     766
CTETRA     10039       1    3089    3136    3090     610
CTETRA     10040       1     212    1095     314     737
CTETRA     10041       1    1724     929     163     411
CTETRA     10042       1    4263    1598    4264     176
CTETRA     10043       1    1740    1741    1756     414
CTETRA     10044       1     545     546     547     373
CTETRA     10045       1     896     213     400     411
CTETRA     10046       1    3678     896     170     136
CTETRA     10047       1    3839    2319    2317     495
CTETRA     10048       1    3408    3409     750     557
CTETRA     10049       1    1873     449     654     582
CTETRA     10050       1    1753     734     731     213
CTETRA     10051       1    1177     170      55     138
CTETRA     10052       1    3677    1724     940     411
CTETRA     10053       1    3465     405    1589    1080
CTETRA     10054       1    3464     207     206    1137
CTETRA     10055       1     449    1137     207    1042
CTETRA     10056       1    3649    4124    3650     873
CTETRA     10057       1    3647      26      24      25
CTETRA     10058       1    1051     541     934     727
CTETRA     10059       1     778     389     405      32
CTETRA     10060       1    1730    1746    1745      82
CTETRA     10061       1    2124    2125    2127     566
CTETRA     10062       1      26     206     205      30
CTETRA     10063       1     778     405     269      32
CTETRA     10064       1    3646      26    2287     205
CTETRA     10065       1    3688    1574    1799    1112
CTETRA     10066       1     172     932     136     173
CTETRA     10067       1    4286    1542     138     139
CTETRA     10068       1    3600     404     407     402
CTETRA     10069       1    1607      52     400     401
CTETRA     10070       1    3971    4284    3373     202
CTETRA     10071       1    3373      55    1608     202
CTETRA     10072       1     896     213     447     400
CTETRA     10073       1    1748      83     578      93
CTETRA     10074       1    3526    1915    1916    1595
CTETRA     10075       1    3465    2281    3466     405
CTETRA     10076       1    1026     366     837     364
CTETRA     10077       1      87      93     837      88
CTETRA     10078       1    4116    4117    2839     353
CTETRA     10079       1      83     578      93      85
CTETRA     10080       1    1644     155    1675     899
CTETRA     10081       1    3657    2300    2280     981
CTETRA     10082       1    1807    1569    1570     157
CTETRA     10083       1    3421     965    1158     116
CTETRA     10084       1    3966    2312    2026    2314
CTETRA     10085       1    3965    3966    2026    2314
CTETRA     10086       1      91     586      93     364
CTETRA     10087       1    4262    4263    2028       7
CTETRA     10088       1    2451    1052     698     975
CTETRA     10089       1    2840    2841    2908     879
CTETRA     10090       1    1344    1345    2468    1052
CTETRA     10091       1    1344    2449    1067    1052
CTETRA     10092       1    2611    2612     862     265
CTETRA     10093       1    2449    2468    2450    1052
CTETRA     10094       1    1344    1067    2449     943
CTETRA     10095       1    1347    1052     784     782
CTETRA     10096       1    3837    2028     322      98
CTETRA     10097       1    2024    2026    2028     322
CTETRA     10098       1    2480    1066    1067     944
CTETRA     10099       1    1343    1052    1347     782
CTETRA     10100       1    2026    2314    2312     322
CTETRA     10101       1    3653    4120    4119     309
CTETRA     10102       1    3767    1472    1466    2350
CTETRA     10103       1    1471    1472    1477     665
CTETRA     10104       1    1472     666     667     665
CTETRA     10105       1    2361     766     666     538
CTETRA     10106       1    3653     308    3654     431
CTETRA     10107       1    4119     272     271     310
CTETRA     10108       1     271     272     278      64
CTETRA     10109       1    1477    1478    1483     667
CTETRA     10110       1    2338    2350    2359     666
CTETRA     10111       1    4117     271    2838     353
CTETRA     10112       1    2241    2246     760     787
CTETRA     10113       1    2289     426    2290    1027
CTETRA     10114       1    1482    1483    1488     471
CTETRA     10115       1    3512    3513    1802    1568
CTETRA     10116       1     844     845     393     315
CTETRA     10117       1     271      23      66      64
CTETRA     10118       1     272    1046     279     310
CTETRA     10119       1    1458     299    1459     301
CTETRA     10120       1    3189    3192    3190     301
CTETRA     10121       1    1423    1431    1436     320
CTETRA     10122       1     391     288     312     435
CTETRA     10123       1      18     431     308      66
CTETRA     10124       1    2084    2085    2096     587
CTETRA     10125       1    1854    1869      54     289
CTETRA     10126       1    4096    4097    2087    3210
CTETRA     10127       1     309     307    1046     313
CTETRA     10128       1    3616      90    2256      96
CTETRA     10129       1    1801    1567    1802     828
CTETRA     10130       1    1628     585    1630      92
CTETRA     10131       1    3890    2386    2252    2387
CTETRA     10132       1    3089    3173    3176    1114
CTETRA     10133       1     576     577     705     707
CTETRA     10134       1     356     957     358     577
CTETRA     10135       1     809     818     371     612
CTETRA     10136       1    3880    3881    2222    2423
CTETRA     10137       1    2203     410     409     406
CTETRA     10138       1    2396    2421    2420     328
CTETRA     10139       1      90    1139      95      85
CTETRA     10140       1    1626      90      96      91
CTETRA     10141       1    2420    2421    2433     409
CTETRA     10142       1    2395    2396    2420     328
CTETRA     10143       1    3682    1063    1132    1042
CTETRA     10144       1     870     594     600     595
CTETRA     10145       1    2399    2404    2403    1100
CTETRA     10146       1    3681    1904    1590    1042
CTETRA     10147       1    3144    3145    3164     410
CTETRA     10148       1     409     410     327     406
CTETRA     10149       1    1591     739    1132    1017
CTETRA     10150       1    3478    1591     739    1132
CTETRA     10151       1    1904    1591    1590    1132
CTETRA     10152       1    3933    1972    1986    2573
CTETRA     10153       1    1494    2409    2410     660
CTETRA     10154       1    2340    2403    2415     594
CTETRA     10155       1    3478     739    1096    1132
CTETRA     10156       1    2499    2525    2524     690
CTETRA     10157       1    1376     422    1379     424
CTETRA     10158       1    4133    1387    1390     419
CTETRA     10159       1    2339    2415    2414     472
CTETRA     10160       1    2403    2416    2415     594
CTETRA     10161       1    3226     434     687     892
CTETRA     10162       1    2100    3318    3314     633
CTETRA     10163       1    2395    2405    2396     328
CTETRA     10164       1    1390    3241     419     846
CTETRA     10165       1     900     169     261    1122
CTETRA     10166       1    2203     802     409     410
CTETRA     10167       1    2222    2398    1129     327
CTETRA     10168       1    1391    1394    1393     846
CTETRA     10169       1    1972    2573    2676     345
CTETRA     10170       1    2427    2428    2441     953
CTETRA     10171       1    3782    1451    1437    2428
CTETRA     10172       1    1390    1393    3241     846
CTETRA     10173       1    2436     976    2438     663
CTETRA     10174       1    2554     796     643     968
CTETRA     10175       1    2535    2550    2546     796
CTETRA     10176       1    3085    3163    3086    1036
CTETRA     10177       1    2152    3154     268     802
CTETRA     10178       1     831    1006     613     342
CTETRA     10179       1    1438    1463    1462    1035
CTETRA     10180       1    2490     218    2492     200
CTETRA     10181       1    4103    2105    3255     793
CTETRA     10182       1    2089     200     199     234
CTETRA     10183       1    2078    2079    2160     200
CTETRA     10184       1    2546    2554     796     643
CTETRA     10185       1    2459    2461    2460     145
CTETRA     10186       1    3284    3290    3289     197
CTETRA     10187       1     499     418     455       8
CTETRA     10188       1     499     455     418     456
CTETRA     10189       1     499    1060     456     733
CTETRA     10190       1     783    1066    1067     943
CTETRA     10191       1     499     455    1060     182
CTETRA     10192       1    2447    2484    2486     664
CTETRA     10193       1    2113    2114    2448     460
CTETRA     10194       1    1769    1077    1039     733
CTETRA     10195       1    2448    2536    2538     460
CTETRA     10196       1    3443    2273    3444     732
CTETRA     10197       1     641     643     794     644
CTETRA     10198       1    3442     396     455     456
CTETRA     10199       1    3442     455    2272    1060
CTETRA     10200       1    2114    2536    2448     460
CTETRA     10201       1    2447    2538    2540     460
CTETRA     10202       1    2448    2538    2486     460
CTETRA     10203       1    2558     970     422     972
CTETRA     10204       1    3066    3069     625    1093
CTETRA     10205       1    3066     625     790    1093
CTETRA     10206       1    2113    2448    2486     460
CTETRA     10207       1    3856    2113    2448    2486
CTETRA     10208       1    3069     211     625    1093
CTETRA     10209       1    1108     790     503    1093
CTETRA     10210       1    2698    2699     893     657
CTETRA     10211       1    2488    2495    2493     229
CTETRA     10212       1    1955     209    1960     204
CTETRA     10213       1    2482    2487    2494     228
CTETRA     10214       1    2072    1006     613     884
CTETRA     10215       1     196     211     893     210
CTETRA     10216       1    3312    3313    3329     785
CTETRA     10217       1    1964    3062    1967     204
CTETRA     10218       1    2469    2470     354     693
CTETRA     10219       1    3294     230    3299    1068
CTETRA     10220       1    3299    1068     230     944
CTETRA     10221       1    3863    2091    2493    2495
CTETRA     10222       1     230    1068     808     944
CTETRA     10223       1    2475    2478    2480    1067
CTETRA     10224       1     783     945     762     984
CTETRA     10225       1    2096    2099    2100     633
CTETRA     10226       1    2525     841     690     848
CTETRA     10227       1    2471    2472     811     944
CTETRA     10228       1    3295    3300    3296     944
CTETRA     10229       1    2478    2480    1067     944
CTETRA     10230       1    3394    3542    3395     925
CTETRA     10231       1    3313    3316     230     231
CTETRA     10232       1     808    1068     354     984
CTETRA     10233       1    2471     811    2488     808
CTETRA     10234       1    1381    1382    1384     423
CTETRA     10235       1    1372    2501     422     972
CTETRA     10236       1    3235    3240    3236     973
CTETRA     10237       1    2498     689    2525     642
CTETRA     10238       1    3806    3807    1372    2501
CTETRA     10239       1    2471     811     808     944
CTETRA     10240       1     808    1068     984     944
CTETRA     10241       1    2460     145    2461     464
CTETRA     10242       1    3703    1285    1288    2590
CTETRA     10243       1    3279    1123    3282    1122
CTETRA     10244       1    3280    1090    3281     464
CTETRA     10245       1    2335     261    1123    1122
CTETRA     10246       1    2334    2462    1121    1123
CTETRA     10247       1    2334    1121    2335    1123
CTETRA     10248       1    1359    1142    1105     863
CTETRA     10249       1    1319    1320     765     297
CTETRA     10250       1    3256    3258    3260     637
CTETRA     10251       1    1142     863     714     993
CTETRA     10252       1    2582    2583    2607     304
CTETRA     10253       1    2595    2607    2604     302
CTETRA     10254       1    3313    3318    3317     632
CTETRA     10255       1    2582    2607     302     304
CTETRA     10256       1    1306    1307    1310     304
CTETRA     10257       1    2560    2562    1142     993
CTETRA     10258       1    2562    1105    1142     993
CTETRA     10259       1    2581    2582    2595     303
CTETRA     10260       1    2618    2620    2619     105
CTETRA     10261       1    2557     643     970     993
CTETRA     10262       1    2908    1107     264     879
CTETRA     10263       1     689     903     902     642
CTETRA     10264       1    2896    2897    2905    1014
CTETRA     10265       1    3238     973    1009     848
CTETRA     10266       1    3708    2639    1244    2640
CTETRA     10267       1    3264     566     794     644
CTETRA     10268       1     946     680     500    1150
CTETRA     10269       1    3097    3099     683    1150
CTETRA     10270       1    4093    2099    3317    3318
CTETRA     10271       1    3858    2086    2484    2485
CTETRA     10272       1    2757    2758    1103    1144
CTETRA     10273       1    3098     683    1043     675
CTETRA     10274       1    2866    2871    2872    1006
CTETRA     10275       1    1247    2942    2944    2945
CTETRA     10276       1    2761     805    1144     804
CTETRA     10277       1    2630    2635     563     567
CTETRA     10278       1    2022     708     713    1053
CTETRA     10279       1     926     604     563     602
CTETRA     10280       1    2914    2925    2918     605
CTETRA     10281       1    3545    1668    1670     492
CTETRA     10282       1    2634     563    2635     567
CTETRA     10283       1     443     384     178     830
CTETRA     10284       1     563     567     561     562
CTETRA     10285       1     384     385     383     830
CTETRA     10286       1    1668     827     829     481
CTETRA     10287       1     746     238     114     907
CTETRA     10288       1    1244    2639    1252     602
CTETRA     10289       1    3350     909    1158     399
CTETRA     10290       1    2937    2948     936     569
CTETRA     10291       1    2654    2664    2655     711
CTETRA     10292       1    2653    2656    2654     711
CTETRA     10293       1    1634     367     909      69
CTETRA     10294       1    3352    1157    1156     909
CTETRA     10295       1     493     686    1019     329
CTETRA     10296       1    2662    2664    2665     713
CTETRA     10297       1    1245     604     563     561
CTETRA     10298       1    3949    2662    2031    2663
CTETRA     10299       1    2941     565     564     562
CTETRA     10300       1    2013    2690    2016     933
CTETRA     10301       1    1048     686     700     687
CTETRA     10302       1    2657    2665    2664     712
CTETRA     10303       1    2824     493    2825     700
CTETRA     10304       1    2937     936    2959     415
CTETRA     10305       1    2522     691     841     848
CTETRA     10306       1    1986    2573     345     998
CTETRA     10307       1    1973    1974    1981     990
CTETRA     10308       1     700     685     905     687
CTETRA     10309       1    3931    1986    1984    2736
CTETRA     10310       1    3222    3226     533     687
CTETRA     10311       1    3223     905     700     702
CTETRA     10312       1    3223    3229     700     905
CTETRA     10313       1    3035    3038    3037     336
CTETRA     10314       1    3037    3042    3040    1018
CTETRA     10315       1    1988    1992    1995     518
CTETRA     10316       1    1923    1924    1990     697
CTETRA     10317       1    3934    3935    1924    2676
CTETRA     10318       1    3361    1172     584      61
CTETRA     10319       1    1171    1172      61     775
CTETRA     10320       1    1982    1985    1984     999
CTETRA     10321       1    2679     695     816     518
CTETRA     10322       1    1704     366     247     248
CTETRA     10323       1    3941    3942    2004    2683
CTETRA     10324       1    1171     775      61      62
CTETRA     10325       1     511     366     513     917
CTETRA     10326       1    2685     816    2686     815
CTETRA     10327       1    3732    1220    1212    2708
CTETRA     10328       1     366     868     837     364
CTETRA     10329       1    3735    1203    1219    2691
CTETRA     10330       1    3364    1621     511      62
CTETRA     10331       1    1213    1224     656      37
CTETRA     10332       1    2578    2597    2579     613
CTETRA     10333       1    1212    2719    1220      40
CTETRA     10334       1    2080    2086    2084     252
CTETRA     10335       1    1621    1623     868      62
CTETRA     10336       1    1213    1220    1218      40
CTETRA     10337       1    2540     717    2541    1003
CTETRA     10338       1    1747      83    1762     997
CTETRA     10339       1    1747    1748      83     578
CTETRA     10340       1    1733    1748     578      93
CTETRA     10341       1     709     585     578      92
CTETRA     10342       1    1213     656      40      37
CTETRA     10343       1    3733    3734    1220    2707
CTETRA     10344       1    1732     989     578     357
CTETRA     10345       1    2109     885    2110     460
CTETRA     10346       1    1733     578     362      93
CTETRA     10347       1    3956    3957    2066    2598
CTETRA     10348       1     362      93     578     363
CTETRA     10349       1    2044    2045    2054     233
CTETRA     10350       1     585      93      92     586
CTETRA     10351       1     430     244     251     592
CTETRA     10352       1    3049    3056    3057      39
CTETRA     10353       1    1207    1208     620     621
CTETRA     10354       1    2691    2707    2720      40
CTETRA     10355       1    3049    3072    3073      37
CTETRA     10356       1    1203    2691    2815      34
CTETRA     10357       1    1626    1627    1628      92
CTETRA     10358       1     578     357     710     577
CTETRA     10359       1    1926     800    1961    1125
CTETRA     10360       1    1057     792     726    1004
CTETRA     10361       1    1661     113     369     260
CTETRA     10362       1    3935    2677    1994     697
CTETRA     10363       1    3023     325    3035     335
CTETRA     10364       1    2856    3030    3025     517
CTETRA     10365       1    3928    3929    1977    2747
CTETRA     10366       1     369     113     821     260
CTETRA     10367       1    3928    1977    1971    2747
CTETRA     10368       1    1661     788     113     260
CTETRA     10369       1     379     260    1086     375
CTETRA     10370       1    2750    2790    2791     996
CTETRA     10371       1    2181    2749    2791     189
CTETRA     10372       1    2798     489     505     883
CTETRA     10373       1    1657    1658     541     725
CTETRA     10374       1    3912    1936    1930    2795
CTETRA     10375       1    1658    1660     379     260
CTETRA     10376       1    2972    2988    2984     774
CTETRA     10377       1     961     876    1064    1141
CTETRA     10378       1    2749     188    2750     189
CTETRA     10379       1    1833    1834     384     178
CTETRA     10380       1    1932     191    2783     773
CTETRA     10381       1    1864    1058     412     385
CTETRA     10382       1    1940    1941    1948     951
CTETRA     10383       1    1940    2988    2971     774
CTETRA     10384       1    2978    2984     950     947
CTETRA     10385       1    3735    3736    1203    2815
CTETRA     10386       1     443     474     177     385
CTETRA     10387       1     443     177     474     180
CTETRA     10388       1     443     830     178     444
CTETRA     10389       1    1849    1865    1864     177
CTETRA     10390       1    2895    1015     765    1014
CTETRA     10391       1    1834     177     443     178
CTETRA     10392       1     537     260     380     375
CTETRA     10393       1    3962    2038    2044    2615
CTETRA     10394       1     443     481     830     444
CTETRA     10395       1    3825    3826    2822     274
CTETRA     10396       1     367     589     590     591
CTETRA     10397       1     244     578     585     363
CTETRA     10398       1     906     115     989     592
CTETRA     10399       1     585     710     578     904
CTETRA     10400       1    2876    2898    2899     765
CTETRA     10401       1    4249    4250    1317    2886
CTETRA     10402       1    4253    2833    1326    2899
CTETRA     10403       1      69     357     710     591
CTETRA     10404       1    1731     989    1732     357
CTETRA     10405       1    4252    4253    1326    2899
CTETRA     10406       1    1747     578     997     357
CTETRA     10407       1    2593    2601    2600     270
CTETRA     10408       1    1788    1549     741     187
CTETRA     10409       1    1789      94    1555     187
CTETRA     10410       1     222     235     360      76
CTETRA     10411       1    4245    4246    1305    2882
CTETRA     10412       1    3440     186     833     741
CTETRA     10413       1    4020    4021    1998    3039
CTETRA     10414       1    3503    1549    1789    1555
CTETRA     10415       1    2287      26    2288     206
CTETRA     10416       1    4247    1311    1308    2887
CTETRA     10417       1    3646    1639      24     459
CTETRA     10418       1    3561    3643    3642    1028
CTETRA     10419       1    1638    1642      24     453
CTETRA     10420       1    1638     453      24     459
CTETRA     10421       1    1642     453     580      48
CTETRA     10422       1     581      31     453      30
CTETRA     10423       1    3648     269      26      25
CTETRA     10424       1    2889    2894    2890     267
CTETRA     10425       1     873      29     269      25
CTETRA     10426       1    2841    2845    2843    1084
CTETRA     10427       1    2310     861    2311     596
CTETRA     10428       1    3963    2032    2038    2311
CTETRA     10429       1    2888    2889    2897     267
CTETRA     10430       1    3991    2055    2046    2890
CTETRA     10431       1    2733     999    2734     616
CTETRA     10432       1    1964     210    3053     204
CTETRA     10433       1    3960    3961    2053    2602
CTETRA     10434       1    4258    1331    1329     143
CTETRA     10435       1    3021     790     501     502
CTETRA     10436       1    1980    3046    3019     625
CTETRA     10437       1    3441    1562    1563     835
CTETRA     10438       1    2580    1081    2581     619
CTETRA     10439       1    2831    2895    2903    1015
CTETRA     10440       1    1982     616     614     615
CTETRA     10441       1    2832    2834    2835    1056
CTETRA     10442       1    3043    3044    3045     990
CTETRA     10443       1    2580    2584    2581    1081
CTETRA     10444       1    1979    1980    1983     615
CTETRA     10445       1    4240    4241    1290    2922
CTETRA     10446       1    3044    3046    3045     614
CTETRA     10447       1    3460    3461    1578     914
CTETRA     10448       1     888     966    1065     579
CTETRA     10449       1    3406     392     555     630
CTETRA     10450       1     555      49     630      45
CTETRA     10451       1     575     941     966      51
CTETRA     10452       1    2636    2638    2637     601
CTETRA     10453       1    4240    1290    1287     607
CTETRA     10454       1     581     941     580      51
CTETRA     10455       1    3407     392    3408     555
CTETRA     10456       1    1285    2590    2574     223
CTETRA     10457       1    2917    2919     608     607
CTETRA     10458       1    2575    2589    2586     570
CTETRA     10459       1    2917    2922    2919     607
CTETRA     10460       1    1291    1292    1295     570
CTETRA     10461       1    1292    1295     570     853
CTETRA     10462       1    2862     834     851     853
CTETRA     10463       1    1295     851    1298     618
CTETRA     10464       1    2916     668     834     853
CTETRA     10465       1    4233    4234    1250    2945
CTETRA     10466       1     668     822     617     853
CTETRA     10467       1    3588    2278     214     216
CTETRA     10468       1     216     224     387     217
CTETRA     10469       1     418     835     396     224
CTETRA     10470       1    2275     396    2277     397
CTETRA     10471       1     466     461     468     259
CTETRA     10472       1    3590     571    3591     397
CTETRA     10473       1     554     631     571     215
CTETRA     10474       1    2578    2580    2597     613
CTETRA     10475       1    3248     714     863     993
CTETRA     10476       1    4017    4018    1997    2964
CTETRA     10477       1    1359    1105     637     863
CTETRA     10478       1     609     646    1131    1127
CTETRA     10479       1    2532    1142     609    1127
CTETRA     10480       1    1999    2000    2002     518
CTETRA     10481       1    2680    2681    2686     815
CTETRA     10482       1    2955    2960    2956     937
CTETRA     10483       1    1363    2567    2565    1105
CTETRA     10484       1    2626    2680    2672     341
CTETRA     10485       1    1361    1363    1362    1142
CTETRA     10486       1    2786     489    2798     795
CTETRA     10487       1    1949     948    1952     951
CTETRA     10488       1    1361    2563    2567    1142
CTETRA     10489       1    2532    2560    1142     714
CTETRA     10490       1    2560    1142     714     993
CTETRA     10491       1    4037    2985    1939    2991
CTETRA     10492       1    2968    1125    3060     622
CTETRA     10493       1    2977    1145     991    1146
CTETRA     10494       1    1945    1145    2985     950
CTETRA     10495       1     488    1076    1141     795
CTETRA     10496       1    2972    2973    3002     774
CTETRA     10497       1    1936     772    2806     949
CTETRA     10498       1    1929    1931     191     777
CTETRA     10499       1    2972    3002    2998     776
CTETRA     10500       1    3060     209     203      42
CTETRA     10501       1    4034    4035    1959    2990
CTETRA     10502       1     800      42    1125     622
CTETRA     10503       1    2712    2715     688     196
CTETRA     10504       1    1624     868      91      88
CTETRA     10505       1    2053    2054    2060     270
CTETRA     10506       1      96      95      97      86
CTETRA     10507       1     524     105     104     106
CTETRA     10508       1    2262     895      97      95
CTETRA     10509       1    3612     895    2261     254
CTETRA     10510       1    3612    1622     895     649
CTETRA     10511       1      91     868     837      88
CTETRA     10512       1    1188    1202    2754     488
CTETRA     10513       1      83      85      93      86
CTETRA     10514       1     913      89      88     649
CTETRA     10515       1    2975    3007    3006     958
CTETRA     10516       1    2974    2980    2975     506
CTETRA     10517       1    2974    2975    3006     958
CTETRA     10518       1    3583     360      67      68
CTETRA     10519       1    2965    2979    2966     620
CTETRA     10520       1    2787    2799    2798     505
CTETRA     10521       1    1745      79      78      77
CTETRA     10522       1    4193    4194    1410    3017
CTETRA     10523       1    1759      74      79      75
CTETRA     10524       1      78      79      74      77
CTETRA     10525       1    2044    2054    2053     233
CTETRA     10526       1    1745     356    1760      79
CTETRA     10527       1     356     358     957      81
CTETRA     10528       1     360      81      80      77
CTETRA     10529       1     142     222      76     144
CTETRA     10530       1      80      69      82      81
CTETRA     10531       1    3193     299     301     359
CTETRA     10532       1    3192    3193     301     359
CTETRA     10533       1    2625     854    2626     338
CTETRA     10534       1     344     699     697    1012
CTETRA     10535       1    2949     341     937     508
CTETRA     10536       1    2570    2735    2725     333
CTETRA     10537       1    3092     299     319     483
CTETRA     10538       1    2569    2570    2725    1073
CTETRA     10539       1    3025    3030    3029     977
CTETRA     10540       1    3028    3035    3034     335
CTETRA     10541       1    2732    2738    1001     334
CTETRA     10542       1    1999    2962    2963     518
CTETRA     10543       1    4024    4025    1979    3046
CTETRA     10544       1    4024    1979    1978    3045
CTETRA     10545       1     319     320     483     321
CTETRA     10546       1    1455     539     299     321
CTETRA     10547       1     541     725     542     727
CTETRA     10548       1    2039    2046    2045     264
CTETRA     10549       1     372     542     547     373
CTETRA     10550       1     545     541     373     529
CTETRA     10551       1    1029     547     527     529
CTETRA     10552       1    1000    1018     344    1013
CTETRA     10553       1     699     697    1012     696
CTETRA     10554       1    3934    1924    1972    2676
CTETRA     10555       1    4033    1959    2970    2989
CTETRA     10556       1    4033    1959    1958    2970
CTETRA     10557       1    2970    3061    3059     209
CTETRA     10558       1    1924    1972    2676     345
CTETRA     10559       1    3933    1972    2573    2676
CTETRA     10560       1    2065    2579     613    1055
CTETRA     10561       1    4032    4033    1958    2970
CTETRA     10562       1    4030    1967    1964    3062
CTETRA     10563       1    2572    2737    1001     998
CTETRA     10564       1    4031    4032    1955    3061
CTETRA     10565       1    4032    2970    1958    3061
CTETRA     10566       1    1923    1973     345    1013
CTETRA     10567       1    2105    2119    2116     793
CTETRA     10568       1    2123    2553    2549     908
CTETRA     10569       1    3940    3941    2001    2685
CTETRA     10570       1    2123    2124    2126     908
CTETRA     10571       1    2121    2122    2124     908
CTETRA     10572       1    2906    2907    2908     264
CTETRA     10573       1    3994    2071    2892    2893
CTETRA     10574       1     641     566     642     644
CTETRA     10575       1    2129    2551    2552     351
CTETRA     10576       1    4213    4214    1223    3070
CTETRA     10577       1    4211    3073    1214    3075
CTETRA     10578       1    4212    4213    1224    3074
CTETRA     10579       1    4212    1224    1214    3074
CTETRA     10580       1    2548     689    2556     903
CTETRA     10581       1    2692    2720    2717      40
CTETRA     10582       1    1213    1218    1214      37
CTETRA     10583       1    4216    1235    1234    3079
CTETRA     10584       1    2556     903     689     642
CTETRA     10585       1    1854      54    1869    1025
CTETRA     10586       1    1854      54    1025     440
CTETRA     10587       1    1885     858    1886     388
CTETRA     10588       1    1884    1885      60      56
CTETRA     10589       1    2756    2765    2761     803
CTETRA     10590       1    2177    2178    2189     804
CTETRA     10591       1    2177    2186    1111    1110
CTETRA     10592       1    1114     753     890     670
CTETRA     10593       1    1420    1426    1425     675
CTETRA     10594       1    3172    3189    3197     766
CTETRA     10595       1    2357    2362     754    1070
CTETRA     10596       1    1109     995    1111    1102
CTETRA     10597       1    2177    2186    2178    1111
CTETRA     10598       1    2346     890     670     359
CTETRA     10599       1    2247     755     760     757
CTETRA     10600       1    2346     890     753     670
CTETRA     10601       1     925     476     921     716
CTETRA     10602       1    1675     293     634     922
CTETRA     10603       1    1109    1102    1111    1144
CTETRA     10604       1    1851     153    1852     923
CTETRA     10605       1    1851     923    1866    1020
CTETRA     10606       1    4053    2192    2178    3108
CTETRA     10607       1     946     500    1151    1150
CTETRA     10608       1    2178    2192    2189     804
CTETRA     10609       1    4058    2213    2207    3123
CTETRA     10610       1     154     923     716     922
CTETRA     10611       1    1866     923    1061    1020
CTETRA     10612       1    1643     292     634     293
CTETRA     10613       1    3990    2046    2040    2907
CTETRA     10614       1    1051     728     725     727
CTETRA     10615       1    3939    3940    1989    2670
CTETRA     10616       1    1051     450    1096     727
CTETRA     10617       1    1028    1051     934     450
CTETRA     10618       1    3084    3168    3165     976
CTETRA     10619       1    1655    1051     728     725
CTETRA     10620       1    3143    3150    3144     410
CTETRA     10621       1    2045     267    2054     233
CTETRA     10622       1    4076    2152    3143    3154
CTETRA     10623       1    1438    1448    1439    1069
CTETRA     10624       1    1462    1101     953    1035
CTETRA     10625       1     368     370     378     375
CTETRA     10626       1     891     647      30     645
CTETRA     10627       1    2053    2060    2059     270
CTETRA     10628       1    3164    3166     802     661
CTETRA     10629       1    3861    3862    2094    2494
CTETRA     10630       1    3144    3164     802     410
CTETRA     10631       1    2152    3154    2157     268
CTETRA     10632       1    2023     861    2314     322
CTETRA     10633       1    3085    3165    3163     663
CTETRA     10634       1    2502    2503    2518     685
CTETRA     10635       1    1441    1446    1030    1032
CTETRA     10636       1    1468    1475    1033    1035
CTETRA     10637       1    3270    3274    3278    1031
CTETRA     10638       1    3085    3271    3279    1119
CTETRA     10639       1    3162     659     662     328
CTETRA     10640       1    2312    2314    2315     322
CTETRA     10641       1    3189    3190    3201     671
CTETRA     10642       1     611     890     809     818
CTETRA     10643       1    2309     348     861     862
CTETRA     10644       1    3171    3172    3197     766
CTETRA     10645       1    1165    1166     467     257
CTETRA     10646       1    3189    3192     301     670
CTETRA     10647       1    3836    3837    2312     322
CTETRA     10648       1    3190    3204    3201     671
CTETRA     10649       1    3341     323    3835     860
CTETRA     10650       1    3841    2503    2144    2504
CTETRA     10651       1    1114     890     753     787
CTETRA     10652       1    1476    1477    1482     665
CTETRA     10653       1    3682     449    1063    1042
CTETRA     10654       1    1899      60     126     232
CTETRA     10655       1    1394    1397    1396     847
CTETRA     10656       1    3682    1903     449    1042
CTETRA     10657       1    2509    1099     691    1007
CTETRA     10658       1    3464    4291    2282     207
CTETRA     10659       1    1918    1592    1593    1137
CTETRA     10660       1    2169    2455    2337     900
CTETRA     10661       1    4130    3211    1396    3217
CTETRA     10662       1    3213    3226    3229     687
CTETRA     10663       1    1613    1615     738    1079
CTETRA     10664       1    1384    1385    1387     423
CTETRA     10665       1    3311    3328    3327     311
CTETRA     10666       1      55     736     447     173
CTETRA     10667       1    1059     735     276     838
CTETRA     10668       1    2161    2172    2169     900
CTETRA     10669       1    3676     734    1753     213
CTETRA     10670       1    2557    2562    2560     993
CTETRA     10671       1    2557    2558    2562    1105
CTETRA     10672       1    1737    1095    1738     731
CTETRA     10673       1    1737     731    1752     509
CTETRA     10674       1    2107    2112    2110     967
CTETRA     10675       1    1142     714     646    1127
CTETRA     10676       1    2560     993     714     968
CTETRA     10677       1     918    1079     703     737
CTETRA     10678       1    1752     731     275     509
CTETRA     10679       1    2903     524    1015    1014
CTETRA     10680       1    2903     524    2904     882
CTETRA     10681       1    1359     637    1373     863
CTETRA     10682       1    2902     524    2903     266
CTETRA     10683       1    3668    2904     519     520
CTETRA     10684       1    3903    3904    2176    2765
CTETRA     10685       1     860     108     296     104
CTETRA     10686       1    2902    2903    2905     266
CTETRA     10687       1     786     118     120     102
CTETRA     10688       1    2192    3108    3109     807
CTETRA     10689       1     553     862     105     104
CTETRA     10690       1     103     553     105     104
CTETRA     10691       1     524     882     105     106
CTETRA     10692       1    4159    3277    1444    3278
CTETRA     10693       1    2824    3222     533     700
CTETRA     10694       1    2438    2439    2440    1101
CTETRA     10695       1    1444    3278    3277    1090
CTETRA     10696       1    1441    1442    1443    1032
CTETRA     10697       1    2472    2489    2488     811
CTETRA     10698       1    2471    2488    2487     808
CTETRA     10699       1    3294    3299    3295    1068
CTETRA     10700       1    1354    1066    2476     945
CTETRA     10701       1    1347    1067     784    1052
CTETRA     10702       1    1046     433     533     434
CTETRA     10703       1     434     691     687     892
CTETRA     10704       1    3220    1046     533     434
CTETRA     10705       1    3220    1046     307     533
CTETRA     10706       1    4156    3270    1443    1032
CTETRA     10707       1    1011     764    1014    1071
CTETRA     10708       1    2604     302     761    1049
CTETRA     10709       1    2039     264    2045     596
CTETRA     10710       1    1107     861     348     862
CTETRA     10711       1    2033    2039     596     879
CTETRA     10712       1    3327     885     311    1003
CTETRA     10713       1    2178    3110    3108    1111
CTETRA     10714       1    2907    2908     264     879
CTETRA     10715       1    2046    2907    2890     264
CTETRA     10716       1    2033     879     861    1106
CTETRA     10717       1    2902    1107     524     266
CTETRA     10718       1      19     277     881      17
CTETRA     10719       1    4094    4095    2100    3314
CTETRA     10720       1    2838    2839     353     278
CTETRA     10721       1    3510    3511    1800    1564
CTETRA     10722       1     274     352     350     277
CTETRA     10723       1    3311    3312    3328     633
CTETRA     10724       1    1405    2821     352     350
CTETRA     10725       1    3401    3826     273     352
CTETRA     10726       1    2082    2087    3210     311
CTETRA     10727       1    3803    3804    1363    2567
CTETRA     10728       1    1656     544     545     541
CTETRA     10729       1     381     374     546     373
CTETRA     10730       1    1520    1527     379     381
CTETRA     10731       1     547     373     542     529
CTETRA     10732       1    4144    3321    1369    3322
CTETRA     10733       1    1352    1353    1356     943
CTETRA     10734       1    2473    2476    2474    1066
CTETRA     10735       1    1347    1357    1353     943
CTETRA     10736       1    3379    1658    3550    1660
CTETRA     10737       1    2474    1066    2476     943
CTETRA     10738       1    1075     374     377     375
CTETRA     10739       1    3510    1564    1800    1575
CTETRA     10740       1    3453    1507    3454     496
CTETRA     10741       1    1057     542     537     726
CTETRA     10742       1    3386    3547    3546    1666
CTETRA     10743       1     746     114     115     907
CTETRA     10744       1    1716     906     746     115
CTETRA     10745       1    1157     909     367     116
CTETRA     10746       1    1702     244     115     245
CTETRA     10747       1    1528     378     368     986
CTETRA     10748       1     244     251     590     245
CTETRA     10749       1    1530     829     496     987
CTETRA     10750       1    1830    1846    1845    1075
CTETRA     10751       1    3453    1530    1507     496
CTETRA     10752       1    2183    2187    2185     193
CTETRA     10753       1    3422     590    1539     116
CTETRA     10754       1     244     590     115     245
CTETRA     10755       1    3383    3549    3548    1662
CTETRA     10756       1    3384    3547    3385     262
CTETRA     10757       1    3395    3541    3396     715
CTETRA     10758       1    3434    2256    3435      95
CTETRA     10759       1      67     360     235      81
CTETRA     10760       1    1633      69      80      68
CTETRA     10761       1    4273    3612    1622     895
CTETRA     10762       1    1633     964      80      69
CTETRA     10763       1    1851    1852    1867     923
CTETRA     10764       1     152     143     220     144
CTETRA     10765       1      69     357      82      81
CTETRA     10766       1    1601     964    1633      69
CTETRA     10767       1    1626      91    1627      92
CTETRA     10768       1    4270    3618    4271    1628
CTETRA     10769       1     356      81      79      77
CTETRA     10770       1    3565    3636    3635    1659
CTETRA     10771       1    3476    3477    1580     791
CTETRA     10772       1    2179    2185    1110     193
CTETRA     10773       1    1109    1111     803     804
CTETRA     10774       1    3476    2295    2296     718
CTETRA     10775       1      76     148     149      77
CTETRA     10776       1    1222    1228    1227     504
CTETRA     10777       1    2700    2739    2741     790
CTETRA     10778       1    3076    3079    3078     326
CTETRA     10779       1    3077    3080    3079     326
CTETRA     10780       1     196     657     203      42
CTETRA     10781       1    3418    1165    1163     468
CTETRA     10782       1    3472    1587      43     141
CTETRA     10783       1    3078    1108     326     504
CTETRA     10784       1    3399    1645    3539    1647
CTETRA     10785       1    1854     289      54     440
CTETRA     10786       1    2739     678    2740     502
CTETRA     10787       1    3479    1680    1679    1545
CTETRA     10788       1     503     678     326     504
CTETRA     10789       1    3021     614    3038     501
CTETRA     10790       1    1817    1818     931     826
CTETRA     10791       1    3363    3364    1171      62
CTETRA     10792       1    3978    1623    3363      61
CTETRA     10793       1    3977    1623    1621      62
CTETRA     10794       1    3453     496    1566     826
CTETRA     10795       1    1644    1648    1645     901
CTETRA     10796       1    1803    1568    1566     826
CTETRA     10797       1    3103    3104    3110    1111
CTETRA     10798       1    1181    1190    2782     962
CTETRA     10799       1    1802    1817     828     826
CTETRA     10800       1    3453     987     496     826
CTETRA     10801       1    1802     828    1568     826
CTETRA     10802       1    1516     715     155     157
CTETRA     10803       1    2519     887     534    1048
CTETRA     10804       1    3749    3750    1181    2782
CTETRA     10805       1     548     330     493     535
CTETRA     10806       1    3798    3799    1342    2544
CTETRA     10807       1    3521    1812    1811    1573
CTETRA     10808       1    2136     702    2139     701
CTETRA     10809       1    2506    2507    2514    1048
CTETRA     10810       1     845     534     427     313
CTETRA     10811       1    1811    1827    1826    1065
CTETRA     10812       1     700     685     686     701
CTETRA     10813       1    1201    2794    1202     489
CTETRA     10814       1    1197    1198    1199     505
CTETRA     10815       1    2513     685     687     692
CTETRA     10816       1    1197    1199    1201     489
CTETRA     10817       1    1811    1812    1827    1065
CTETRA     10818       1    3746    1188    1202    2754
CTETRA     10819       1    3409     575    1506     750
CTETRA     10820       1    2612    2616    2617     265
CTETRA     10821       1    1201    2788    2794     489
CTETRA     10822       1    2593     233     270    1049
CTETRA     10823       1    2310    2611     861     596
CTETRA     10824       1    2038    2615     596     233
CTETRA     10825       1    2613     761    1011    1071
CTETRA     10826       1    2176    2755    2179     803
CTETRA     10827       1    3230     905    3232     316
CTETRA     10828       1    2131    3233    3231     316
CTETRA     10829       1    4224    4225    1260    3029
CTETRA     10830       1    4218    4219    1236    3080
CTETRA     10831       1    3214     905     902     692
CTETRA     10832       1    2721    2722     684     332
CTETRA     10833       1    2699    2741     893    1093
CTETRA     10834       1    3214     905    3230     902
CTETRA     10835       1    3721    3722    1182    2727
CTETRA     10836       1    3038     990    1000     501
CTETRA     10837       1    3215     566     902     316
CTETRA     10838       1     905     902    1148     316
CTETRA     10839       1     325     684     682     332
CTETRA     10840       1    4222    4223    1256    3032
CTETRA     10841       1    2128     566    3216     316
CTETRA     10842       1    2496    2497    2551     351
CTETRA     10843       1     970     643     642     644
CTETRA     10844       1     580     453      31      48
CTETRA     10845       1    2104    2115    2118     796
CTETRA     10846       1    1638     580    1642     453
CTETRA     10847       1    1637     580    1638     453
CTETRA     10848       1    3412    1640    1637     598
CTETRA     10849       1    1473    1479    2393     864
CTETRA     10850       1    2393    2411    2394     864
CTETRA     10851       1     864     662     659     328
CTETRA     10852       1    3163    3165     661     663
CTETRA     10853       1    2418    2438    1101     865
CTETRA     10854       1    3495    3496    1797    1548
CTETRA     10855       1    2582     303    1126     618
CTETRA     10856       1    2408     798     864     660
CTETRA     10857       1    1480    1486     864     659
CTETRA     10858       1    1300    1301    1304     303
CTETRA     10859       1    1468    1101    1036     865
CTETRA     10860       1    1312    2610    2608     761
CTETRA     10861       1    1601     399    1604     964
CTETRA     10862       1    2582    2587     303     618
CTETRA     10863       1    3700    3701    1294    2591
CTETRA     10864       1     398     236      78     387
CTETRA     10865       1    2585    2591    2587     618
CTETRA     10866       1    4260    1604     121     125
CTETRA     10867       1    2862    2881    2863     851
CTETRA     10868       1     235      76      75      77
CTETRA     10869       1     360     148      76      77
CTETRA     10870       1    1699     747    1714     742
CTETRA     10871       1    3904    2179    2176    2755
CTETRA     10872       1    1730     746    1731      82
CTETRA     10873       1    1602     142    1603      68
CTETRA     10874       1     121     964     399     915
CTETRA     10875       1    4059    4060    2219    3122
CTETRA     10876       1    1748    1749      87      93
CTETRA     10877       1    2582    2607    2595     302
CTETRA     10878       1    1626      96      97      91
CTETRA     10879       1    1332    2332    2466    1030
CTETRA     10880       1    3268     974     782     975
CTETRA     10881       1     362    1026      93     364
CTETRA     10882       1    1879    1058    1880     129
CTETRA     10883       1    1879     129    1894     131
CTETRA     10884       1     129      43      38     141
CTETRA     10885       1     129      38      43    1021
CTETRA     10886       1    1736    1752    1751     509
CTETRA     10887       1     129      43     130    1021
CTETRA     10888       1    1880    1058    1022     129
CTETRA     10889       1    3787    3788    1332    2466
CTETRA     10890       1    3675    1754    1769    1039
CTETRA     10891       1     129     130      43     141
CTETRA     10892       1     738     731     559     840
CTETRA     10893       1    1738     731     212     213
CTETRA     10894       1    2303    1023     889     130
CTETRA     10895       1     213     838     559     401
CTETRA     10896       1    1879    1894     382     131
CTETRA     10897       1    1835     153    1850     177
CTETRA     10898       1    1866    1867    1061     923
CTETRA     10899       1    1335    3320    3319     763
CTETRA     10900       1     153     154     923     716
CTETRA     10901       1     808     228     354     632
CTETRA     10902       1     153     179     154     716
CTETRA     10903       1    1850     153    1851    1020
CTETRA     10904       1     808     354    1068     632
CTETRA     10905       1    2443    2476    2473     945
CTETRA     10906       1    1678     474    1023    1024
CTETRA     10907       1    1866    1061    1022    1020
CTETRA     10908       1    2697    2698    2748     196
CTETRA     10909       1     196     211     203     657
CTETRA     10910       1    4147    3298    1341    3319
CTETRA     10911       1    1967    3062    3061     204
CTETRA     10912       1     625     624     616     790
CTETRA     10913       1     209     203     196     204
CTETRA     10914       1    1957    2748    1968     893
CTETRA     10915       1    1964    1969    3053     210
CTETRA     10916       1    1388    1391    1390     419
CTETRA     10917       1    1383    2520     843     969
CTETRA     10918       1    4133    1390    3241     419
CTETRA     10919       1    2520    2521    2527     843
CTETRA     10920       1    1965     196     210     204
CTETRA     10921       1    1964    3053    3062     204
CTETRA     10922       1    1840     439     440     436
CTETRA     10923       1    3574    3661    3660     292
CTETRA     10924       1    1807     195    1822     157
CTETRA     10925       1     920     281      15     898
CTETRA     10926       1    3812    2527    2510     842
CTETRA     10927       1    1508    1008     629     281
CTETRA     10928       1     287     438     288     290
CTETRA     10929       1    3447    1402    1406     353
CTETRA     10930       1    1508    1519     156     281
CTETRA     10931       1    3656      21     880      23
CTETRA     10932       1    2307     274    2822     432
CTETRA     10933       1    1392    1395    1394    1099
CTETRA     10934       1    2837    2838    3228     759
CTETRA     10935       1     724     920     440      15
CTETRA     10936       1     432     759     278    1007
CTETRA     10937       1    1412    1415    2776     924
CTETRA     10938       1    3401     352     273     881
CTETRA     10939       1    2992     875     672     673
CTETRA     10940       1    3096    3097    1151    1144
CTETRA     10941       1     963     961     876     962
CTETRA     10942       1    2992     876     875     673
CTETRA     10943       1    1432    1433    1435     639
CTETRA     10944       1      89      84      95     640
CTETRA     10945       1    3757    2370    2369     639
CTETRA     10946       1    3676    3677    1739     940
CTETRA     10947       1    3432     417     729     636
CTETRA     10948       1     730     417    1120     242
CTETRA     10949       1     324     161       5       2
CTETRA     10950       1    3111    3112    3127     946
CTETRA     10951       1    3677     212    3678     896
CTETRA     10952       1    2200     652    2206     781
CTETRA     10953       1    3677    3678    1724     929
CTETRA     10954       1    3677    1724    1739     940
CTETRA     10955       1    2195    2201    2200     652
CTETRA     10956       1    1115     781    1072     280
CTETRA     10957       1    2329    2758    2759     500
CTETRA     10958       1    1698    1714    1713     742
CTETRA     10959       1    3094    3109    3095     806
CTETRA     10960       1    1713    1729    1728     236
CTETRA     10961       1    3755    1427    2331    2370
CTETRA     10962       1    4183    4184    1457    3093
CTETRA     10963       1    2190    2195    2194     806
CTETRA     10964       1     650    1115    1072     872
CTETRA     10965       1    1513    1514     475     497
CTETRA     10966       1     318    1038     480     478
CTETRA     10967       1     780    1037    1115     872
CTETRA     10968       1    2326     780     781     653
CTETRA     10969       1    3393    3543    1673     910
CTETRA     10970       1    3393    1673    3542     925
CTETRA     10971       1    2457     145    2458     261
CTETRA     10972       1    3091    3193    3192     359
CTETRA     10973       1    3286     146     169    1123
CTETRA     10974       1    4179    3191    1464    3204
CTETRA     10975       1    2692    2717    2693      34
CTETRA     10976       1    2170     261     169     146
CTETRA     10977       1    3406    1511    1510     630
CTETRA     10978       1    2460     261     145    1123
CTETRA     10979       1    1810     593    1578    1065
CTETRA     10980       1    3819    3820    2318     394
CTETRA     10981       1    2335     900    2336     261
CTETRA     10982       1    2335     261    2460    1123
CTETRA     10983       1    3591     519    3666     284
CTETRA     10984       1     524     105     882    1015
CTETRA     10985       1     572     107     105     573
CTETRA     10986       1    2830     520     631     882
CTETRA     10987       1     105     882    1015     573
CTETRA     10988       1    1707    1095     836     314
CTETRA     10989       1    3429    1177     170     314
CTETRA     10990       1    3688    3523    4294    1577
CTETRA     10991       1    1178     918     703     314
CTETRA     10992       1    1827    1843    1842     916
CTETRA     10993       1    3370    1178     918     703
CTETRA     10994       1    3370    1615    1613    1079
CTETRA     10995       1    3396    3541    3540    1675
CTETRA     10996       1    2967    3057    3056      39
CTETRA     10997       1    3052     211     203     204
CTETRA     10998       1    3396    3540    3397     155
CTETRA     10999       1    3371      55    1177     703
CTETRA     11000       1    1933    2999    2846     994
CTETRA     11001       1    3517    1807    1569    1570
CTETRA     11002       1    3370    1613    3371     703
CTETRA     11003       1     212     213     731     736
CTETRA     11004       1    1807    1823    1822     195
CTETRA     11005       1    3342    3833    3832     103
CTETRA     11006       1     918     516     240    1079
CTETRA     11007       1    1613     703    1079     840
CTETRA     11008       1    1882    1898    1897      59
CTETRA     11009       1     722     898     899     922
CTETRA     11010       1    3397    3398    1518     155
CTETRA     11011       1    3400     156     901     881
CTETRA     11012       1    4091    3316    3317     231
CTETRA     11013       1    3375    1526    1521     545
CTETRA     11014       1    2488     808     811     229
CTETRA     11015       1     366     868     365      62
CTETRA     11016       1    3427    1173    1174     917
CTETRA     11017       1    3313    1068     785     632
CTETRA     11018       1    1566     826     496     498
CTETRA     11019       1    3426    1171     917     775
CTETRA     11020       1    3418    1546    1547     461
CTETRA     11021       1    2487     354     808     228
CTETRA     11022       1     633     354     252     587
CTETRA     11023       1    1727    1728     420     745
CTETRA     11024       1     420     100     119     285
CTETRA     11025       1     142     151     222     144
CTETRA     11026       1    1728     236     398     745
CTETRA     11027       1     127      99     786     120
CTETRA     11028       1     236     745     237     119
CTETRA     11029       1    1822     395     154     157
CTETRA     11030       1    1807     157    1822     140
CTETRA     11031       1    3842    3843    2141    2503
CTETRA     11032       1    3396    3541    1675     715
CTETRA     11033       1    3396     155    1516     715
CTETRA     11034       1    1838     724     722     395
CTETRA     11035       1    1177     703      55     170
CTETRA     11036       1     724     395     195     898
CTETRA     11037       1    1740    1755     940     184
CTETRA     11038       1    1699     747     742     744
CTETRA     11039       1    3421    3422    1539     116
CTETRA     11040       1    1715    1716     746     114
CTETRA     11041       1    1699    1715     747     114
CTETRA     11042       1    3673     797    1558     810
CTETRA     11043       1    1782     276    1783     919
CTETRA     11044       1    3675    1768     734     276
CTETRA     11045       1    3669     554    3670     631
CTETRA     11046       1    3674    3675     942     276
CTETRA     11047       1     150     186      76     149
CTETRA     11048       1     797     838     942     401
CTETRA     11049       1      52     797     404     401
CTETRA     11050       1     560    1039     942     404
CTETRA     11051       1    3674     276     942     810
CTETRA     11052       1     734     942     276     838
CTETRA     11053       1     560     734     213     838
CTETRA     11054       1    3675     734     560     942
CTETRA     11055       1     909     964      69     907
CTETRA     11056       1    1606     964     355      80
CTETRA     11057       1     954     358     710      70
CTETRA     11058       1    3439    3440    1549     186
CTETRA     11059       1    1635     591     710     904
CTETRA     11060       1    1632    1635      69     710
CTETRA     11061       1    3442    1557    1562     456
CTETRA     11062       1      69     710     358      70
CTETRA     11063       1    1757    1758    1773     556
CTETRA     11064       1    2877    2884     302     298
CTETRA     11065       1    3685     655     582     527
CTETRA     11066       1    1814     547    1829     751
CTETRA     11067       1     452     531     582     526
CTETRA     11068       1     178     291     497     498
CTETRA     11069       1    3515    3516    1806    1572
CTETRA     11070       1    3685    1844    1859    1062
CTETRA     11071       1    3688     525    1574    1112
CTETRA     11072       1    2275     740    2276     455
CTETRA     11073       1    3687     525     751     536
CTETRA     11074       1    3966    3967    2026    2312
CTETRA     11075       1    3449     546    1575    1112
CTETRA     11076       1    3836    3837     322      98
CTETRA     11077       1    4263    1600    1599    1087
CTETRA     11078       1    2026    2312    2028     322
CTETRA     11079       1    4263    2027    2028     852
CTETRA     11080       1     547     374     546    1112
CTETRA     11081       1    1725    1741    1740     158
CTETRA     11082       1    3475    3476    1583     718
CTETRA     11083       1    3339     323    3340     467
CTETRA     11084       1    1725    1726    1741     158
CTETRA     11085       1     284     107     521     397
CTETRA     11086       1    4262    1600    4263    1087
CTETRA     11087       1    3834     860    3835     347
CTETRA     11088       1    3968    1600    4261     959
CTETRA     11089       1    3837    2028    2312     322
CTETRA     11090       1    4303    4261    3967    3837
CTETRA     11091       1    2085    2094    2096     587
CTETRA     11092       1    4261    3967    3837    2028
CTETRA     11093       1     492     475     444     445
CTETRA     11094       1     177     476     474     180
CTETRA     11095       1    1022     132     474    1021
CTETRA     11096       1     177     476     179    1020
CTETRA     11097       1    4258    1606    4259     355
CTETRA     11098       1    3367    1617    3368     514
CTETRA     11099       1    1865    1022     177    1020
CTETRA     11100       1     177     179     476     180
CTETRA     11101       1    1608    1613    1612     840
CTETRA     11102       1    1766    1767    1781    1120
CTETRA     11103       1    3678    3679    1709     136
CTETRA     11104       1    1023     132     130    1021
CTETRA     11105       1    1022     474    1020    1021
CTETRA     11106       1    3572    1678     137    1024
CTETRA     11107       1    1061    1022    1020     294
CTETRA     11108       1    2303     137     130      43
CTETRA     11109       1    3445    3446    1406     352
CTETRA     11110       1    3425     246    1172     775
CTETRA     11111       1      18      11      66      14
CTETRA     11112       1    3448    3658    3657     981
CTETRA     11113       1    1168     584    1172     246
CTETRA     11114       1    1172     584     365     246
CTETRA     11115       1    4092    4093    2099    3317
CTETRA     11116       1    3446    1647    1648     901
CTETRA     11117       1    1690    1706    1705    1083
CTETRA     11118       1    3447    1648    3448      22
CTETRA     11119       1     584     365     246     364
CTETRA     11120       1    1172     246     365     775
CTETRA     11121       1    1392    1099    1394     842
CTETRA     11122       1    1705    1083     366     248
CTETRA     11123       1    3446    1648    3447      19
CTETRA     11124       1    1855     287    1871     289
CTETRA     11125       1    3458    1518    1519     157
CTETRA     11126       1     271     278     353      64
CTETRA     11127       1    1400    1403     759    1007
CTETRA     11128       1    3408     750     392     557
CTETRA     11129       1    2294     361     112     719
CTETRA     11130       1     819     719     382     190
CTETRA     11131       1    1153     589    1169     590
CTETRA     11132       1    1665     361    1667     748
CTETRA     11133       1    1665     748     369     749
CTETRA     11134       1    3590    3667    3591     571
CTETRA     11135       1    1745    1746     356      82
CTETRA     11136       1    3566    1661    3634     113
CTETRA     11137       1    1701    1702    1717     115
CTETRA     11138       1    3629     982    1667     361
CTETRA     11139       1     366     917     775    1083
CTETRA     11140       1    2297     721     983     719
CTETRA     11141       1     997     578     576     577
CTETRA     11142       1    1689    1690    1705     248
CTETRA     11143       1    2099    3318     633     632
CTETRA     11144       1    2297     982     983     721
CTETRA     11145       1     239     241     253     242
CTETRA     11146       1    3369    3370    1178     918
CTETRA     11147       1    3629    2297     982     983
CTETRA     11148       1    2695    1130    2810     992
CTETRA     11149       1    1724    1725    1740     163
CTETRA     11150       1    2273     175     407     732
CTETRA     11151       1    2694     800     992    1146
CTETRA     11152       1    1705    1721      36     513
CTETRA     11153       1    2706    2713     800     992
CTETRA     11154       1    1726    1742    1741     416
CTETRA     11155       1    1943    1944    1130     992
CTETRA     11156       1    2968     991    1125    1146
CTETRA     11157       1    2039    2040    2046     879
CTETRA     11158       1    1130     950     948     952
CTETRA     11159       1    3435    2258    2257    1139
CTETRA     11160       1    3436    3437    1553     706
CTETRA     11161       1    3621    4298    2269     954
CTETRA     11162       1    4120    3220     309     307
CTETRA     11163       1      95      84    1139    1138
CTETRA     11164       1    3485    1686    1685    1539
CTETRA     11165       1    1632    1634    1633      69
CTETRA     11166       1     532     279     313     306
CTETRA     11167       1    1778    1793    1792    1138
CTETRA     11168       1    2264      52     797     404
CTETRA     11169       1    1768     275     734     276
CTETRA     11170       1    3431    2255    3432     730
CTETRA     11171       1    3822     845     844     532
CTETRA     11172       1     289      11     388      56
CTETRA     11173       1    3428    1177    3429     314
CTETRA     11174       1    1749     913    1764      87
CTETRA     11175       1    3501    1791    1792    1553
CTETRA     11176       1    2253    2257     583     705
CTETRA     11177       1    1777    1778    1792    1138
CTETRA     11178       1    2296     112     111     718
CTETRA     11179       1    3435    2257    3436     705
CTETRA     11180       1     272     433    1046     434
CTETRA     11181       1    1920    2182    2181     189
CTETRA     11182       1    3457    1516     157     140
CTETRA     11183       1    1921    1933     994     189
CTETRA     11184       1    1919    1931    1920     189
CTETRA     11185       1    2470    2487    2482     354
CTETRA     11186       1    2187    3106    1110     193
CTETRA     11187       1    1645    1648    1647     901
CTETRA     11188       1    3426    1535    1536    1083
CTETRA     11189       1    1722    1095    1737     836
CTETRA     11190       1    2469    2470    2482     354
CTETRA     11191       1     392     555      45      50
CTETRA     11192       1    1721    1736      36     836
CTETRA     11193       1    1666    1667    1668     481
CTETRA     11194       1    3568    3629    3569    1667
CTETRA     11195       1    1665    1667    1666     748
CTETRA     11196       1    1095     836     314     516
CTETRA     11197       1    1737     836    1095     509
CTETRA     11198       1    1673    1677    1674     293
CTETRA     11199       1     514     512     240     510
CTETRA     11200       1    1661     369    1662     260
CTETRA     11201       1    3978    1625    1623      61
CTETRA     11202       1     930     384     383     985
CTETRA     11203       1    1705      36     366     513
CTETRA     11204       1    1706    1707     513     597
CTETRA     11205       1    1152    1129    1100     871
CTETRA     11206       1    1346     783    3308     784
CTETRA     11207       1    1078     743    1094     237
CTETRA     11208       1    3419    1078    1533    1094
CTETRA     11209       1    3466    2281    2292     405
CTETRA     11210       1    1917    1593    1589    1080
CTETRA     11211       1    1829    1845    1844     547
CTETRA     11212       1    1155     124     121    1078
CTETRA     11213       1     547     546     751    1112
CTETRA     11214       1    3374    3375    1521     263
CTETRA     11215       1    1799    1574    1575    1112
CTETRA     11216       1    1831     930    1075     370
CTETRA     11217       1    1155     121    1159    1078
CTETRA     11218       1    3419    1155    1078    1094
CTETRA     11219       1     124     121    1078     915
CTETRA     11220       1    2177     803    1111     804
CTETRA     11221       1    2760    2762    1115     280
CTETRA     11222       1    2206     781     652     653
CTETRA     11223       1    2379    1115     780    1037
CTETRA     11224       1    1364    1366    1365     609
CTETRA     11225       1    1613    1615    1614     738
CTETRA     11226       1    1929    1935    1934     773
CTETRA     11227       1    4276    3607    4277    1616
CTETRA     11228       1    3206     863     646    1147
CTETRA     11229       1    2531    1142    2563     609
CTETRA     11230       1    3324    3327    3325    1003
CTETRA     11231       1    3973    1613    3370    1615
CTETRA     11232       1    1367    3323     646    1147
CTETRA     11233       1    2445    2541     428    1003
CTETRA     11234       1    4042    4043    1940    2971
CTETRA     11235       1    4044    1928    1934    3000
CTETRA     11236       1    2446     664    2540    1003
CTETRA     11237       1    1929    1931    1932     191
CTETRA     11238       1    2532    2533     714     717
CTETRA     11239       1    2784    2790    2789     191
CTETRA     11240       1     776    1141    1076     795
CTETRA     11241       1    1472    2350     666     538
CTETRA     11242       1    2358    1070     666     766
CTETRA     11243       1    3186    3199    3198     470
CTETRA     11244       1    1492     870    1495     595
CTETRA     11245       1    1483    1489    1488     471
CTETRA     11246       1    1484    1490    1489     472
CTETRA     11247       1     147     387     119     217
CTETRA     11248       1    1603     142    1605     151
CTETRA     11249       1    1478    2350    2338     667
CTETRA     11250       1     786     573     550     221
CTETRA     11251       1    4259     355    4260     128
CTETRA     11252       1    3769    2414    1484     667
CTETRA     11253       1    3769    1484    1478     667
CTETRA     11254       1    1925    1938    1926     991
CTETRA     11255       1    1946    2986    1947     950
CTETRA     11256       1    3409    3580     575     557
CTETRA     11257       1    1510     630    1511     626
CTETRA     11258       1    1842     287     888     941
CTETRA     11259       1    2982    1145    2991     991
CTETRA     11260       1    2977    2982    2981     991
CTETRA     11261       1    1950    2804    1953     948
CTETRA     11262       1    1827    1842     888     941
CTETRA     11263       1    2805    2806    2809     949
CTETRA     11264       1    1960    1962    1963     688
CTETRA     11265       1     287     888     941      51
CTETRA     11266       1     581     941     916     580
CTETRA     11267       1     575     941     598     331
CTETRA     11268       1    4257    4265    1605     151
CTETRA     11269       1     554     214     150     220
CTETRA     11270       1    3916    3917    1954    2803
CTETRA     11271       1    3914    3915    1950    2804
CTETRA     11272       1     244     243     251     245
CTETRA     11273       1    1686    1702    1701     115
CTETRA     11274       1    4021    1922    1998    3039
CTETRA     11275       1    2571    2674    2572     344
CTETRA     11276       1    1974    3047    3045     990
CTETRA     11277       1    3326    3328    3329     693
CTETRA     11278       1    3423     251    1540     245
CTETRA     11279       1    1687    1540    1688     243
CTETRA     11280       1    3043     990    3047    1013
CTETRA     11281       1    2572    2676    2573     345
CTETRA     11282       1    1979     990    3045     614
CTETRA     11283       1    3040    1018    3042    1013
CTETRA     11284       1    3622    3623    2301     137
CTETRA     11285       1    3487    1687    1537    1540
CTETRA     11286       1    2742     501     616     790
CTETRA     11287       1    2674    2677    2676     697
CTETRA     11288       1    1779    1793    1138     640
CTETRA     11289       1    4018    1996    1997    1047
CTETRA     11290       1    1793    1794    1550     640
CTETRA     11291       1     554     215     214     220
CTETRA     11292       1    3434     894      95     640
CTETRA     11293       1     414     418     499       8
CTETRA     11294       1      89     894     636     640
CTETRA     11295       1      83      87      84      86
CTETRA     11296       1    2927    1118    2928     669
CTETRA     11297       1    4013    4014    2005    2955
CTETRA     11298       1    2957    2958    2960     936
CTETRA     11299       1    2000    2003    2002     376
CTETRA     11300       1    1989    2670    2001     816
CTETRA     11301       1    2680    2686     816     815
CTETRA     11302       1    2955    2957    2960     937
CTETRA     11303       1    2035    2041    2936    1117
CTETRA     11304       1     118     120     119     217
CTETRA     11305       1    2912    1091    2929     878
CTETRA     11306       1    2003     816     815     376
CTETRA     11307       1    3662    4299    2302     543
CTETRA     11308       1    1993    2678    1995     696
CTETRA     11309       1    2931    2932    2936    1054
CTETRA     11310       1    2929    1091    1143     878
CTETRA     11311       1    2021    2022    2030    1054
CTETRA     11312       1    1029     582     574     526
CTETRA     11313       1     458     531     452     526
CTETRA     11314       1    4008    2020    2029    2932
CTETRA     11315       1     381     374     377    1074
CTETRA     11316       1    3686    3687     751     536
CTETRA     11317       1    3687     530     525     536
CTETRA     11318       1    2018     708    2021    1053
CTETRA     11319       1    2932    1054    1091    1053
CTETRA     11320       1    4290    1523     525     530
CTETRA     11321       1    3414     458     457     530
CTETRA     11322       1    3686    1829    1029     751
CTETRA     11323       1    1828     536     916     599
CTETRA     11324       1    1249    2650    1263     568
CTETRA     11325       1    1247    1262     856     568
CTETRA     11326       1    1247    1250    2942    2945
CTETRA     11327       1    1247    2944    2942     568
CTETRA     11328       1    3452    1528    1529     987
CTETRA     11329       1    2235    1136    2355    1133
CTETRA     11330       1    2938    2939     856     568
CTETRA     11331       1    2860     343    2870     823
CTETRA     11332       1    2660    2665    2661     897
CTETRA     11333       1    2057    2058    2063     340
CTETRA     11334       1    2942     561     568     562
CTETRA     11335       1    2864    2868    2865     832
CTETRA     11336       1    2629    1124    2649     568
CTETRA     11337       1    2594     270    2600     346
CTETRA     11338       1    3383    3384    1528     986
CTETRA     11339       1    1250    1251     568     561
CTETRA     11340       1     567     569     568     562
CTETRA     11341       1    2938    2954    2948     569
CTETRA     11342       1    3854    2536    2112    2537
CTETRA     11343       1    3855    2448    2114    2536
CTETRA     11344       1    2939    2944     856     568
CTETRA     11345       1    4287    2264     797     813
CTETRA     11346       1    3430    1558    4287     797
CTETRA     11347       1      52     838     797     401
CTETRA     11348       1     641     566     794     908
CTETRA     11349       1    3452    1529    3453     987
CTETRA     11350       1    3175     756    1134     758
CTETRA     11351       1    4110    3224    2137    3232
CTETRA     11352       1    4279    3603    3602      57
CTETRA     11353       1     734     276     735     838
CTETRA     11354       1    3602      57    2263     797
CTETRA     11355       1    2265      57    1059     797
CTETRA     11356       1     825     389     858      33
CTETRA     11357       1    1766     249    1120     417
CTETRA     11358       1    3431    1559    1059     919
CTETRA     11359       1    2129    2132    2551     351
CTETRA     11360       1    4107    4108    2128    3233
CTETRA     11361       1    3215    3264    3237     566
CTETRA     11362       1    3607     446     239     730
CTETRA     11363       1     275    1120     249     242
CTETRA     11364       1    1343    1052     782     698
CTETRA     11365       1     730    1120     417     919
CTETRA     11366       1    1126     303     851     618
CTETRA     11367       1    2130    2133    2132     316
CTETRA     11368       1    2599     884     613     619
CTETRA     11369       1    2581    1126     303     619
CTETRA     11370       1    2582    2595     303     302
CTETRA     11371       1    1302    2863    2882     851
CTETRA     11372       1    2584     617    1126    1081
CTETRA     11373       1    2138    2502     558     701
CTETRA     11374       1     272     432     279     433
CTETRA     11375       1    3879    2216    2210    2422
CTETRA     11376       1    2197     801    2198     409
CTETRA     11377       1    2581    1081    1126     619
CTETRA     11378       1     218     197     975     464
CTETRA     11379       1    4080    4081    2175    3151
CTETRA     11380       1    2153    2157    2156     268
CTETRA     11381       1    1085    1126    1081     619
CTETRA     11382       1    2581    2584    1126    1081
CTETRA     11383       1    2309     861    2611     862
CTETRA     11384       1    3083    3151    3168     192
CTETRA     11385       1     261     169    1123    1122
CTETRA     11386       1    3084     169     192    1122
CTETRA     11387       1    3286    3287     169     146
CTETRA     11388       1    1491    1492    1502     595
CTETRA     11389       1    3082    3286    3287     169
CTETRA     11390       1    2171    2173    2174     169
CTETRA     11391       1    2172     261     900     133
CTETRA     11392       1    3282    1123     169    1122
CTETRA     11393       1    3084    3282     169    1122
CTETRA     11394       1    3265    3292    3266     199
CTETRA     11395       1    3900    2199    2762     280
CTETRA     11396       1    3900    2763    2193     280
CTETRA     11397       1    2089    3265    2102     231
CTETRA     11398       1    2096    2099     633     632
CTETRA     11399       1    2088    2092    2093     234
CTETRA     11400       1    2091    2493    2495     229
CTETRA     11401       1    3197     540     469     766
CTETRA     11402       1    3295    3329    3313    1068
CTETRA     11403       1    2092     231    2098     229
CTETRA     11404       1    1533     743    1078     744
CTETRA     11405       1    3899    3900    2199    2762
CTETRA     11406       1     101     110     108     100
CTETRA     11407       1    1078     965     744     915
CTETRA     11408       1    2250    2354    2353    1133
CTETRA     11409       1    1713     236     745     742
CTETRA     11410       1    1792    1793    1556    1138
CTETRA     11411       1    1630     709     583      92
CTETRA     11412       1    2438     976    1119     663
CTETRA     11413       1      83     576     578      85
CTETRA     11414       1    1733     362    1026      93
CTETRA     11415       1    3879    3880    2216    2422
CTETRA     11416       1    1734    1026     837      93
CTETRA     11417       1    1732     362    1733     578
CTETRA     11418       1    2233    2237    2236     817
CTETRA     11419       1    3163    3165    3164     661
CTETRA     11420       1    1774      75      94     187
CTETRA     11421       1    2344    2345    2387     760
CTETRA     11422       1    1743     398    1744     386
CTETRA     11423       1    2231    3180    3174     758
CTETRA     11424       1    2230    2231    2248     758
CTETRA     11425       1    2248    1133     755     758
CTETRA     11426       1    3184    1134    1152     817
CTETRA     11427       1    1630    1631     709     710
CTETRA     11428       1    1744     398     236      78
CTETRA     11429       1    4271    3618    3617      90
CTETRA     11430       1    2354    2356    2363    1133
CTETRA     11431       1    3436    2257    2253     705
CTETRA     11432       1    1781    1120    1796     417
CTETRA     11433       1    1724    1740    1739     940
CTETRA     11434       1     732    1039    1077     733
CTETRA     11435       1    2342    2355    2343    1136
CTETRA     11436       1      90      96      91      86
CTETRA     11437       1    1769    1785    1784     733
CTETRA     11438       1    1770     499     456     733
CTETRA     11439       1    3611    3612    2259     254
CTETRA     11440       1    1780    1781    1795     417
CTETRA     11441       1    1797    1798    1559     919
CTETRA     11442       1    2318     394    2505     887
CTETRA     11443       1    3432    2259    3433     636
CTETRA     11444       1    2318     394     887     495
CTETRA     11445       1     493    1019     495     329
CTETRA     11446       1     394     495      44     535
CTETRA     11447       1    2194    2195    2200     806
CTETRA     11448       1    1780     417    1795     636
CTETRA     11449       1    3094    3095    3125    1072
CTETRA     11450       1    3094    3125     650    1072
CTETRA     11451       1    3095    3126    3125    1072
CTETRA     11452       1     805     806     807     804
CTETRA     11453       1    2189    2190    2194     806
CTETRA     11454       1    4264    3663    2027     850
CTETRA     11455       1    3095    3109    3105     807
CTETRA     11456       1    2224     371     484     612
CTETRA     11457       1    1164    1082     124    1094
CTETRA     11458       1    2375    2379    2380     780
CTETRA     11459       1     446    1059     839     735
CTETRA     11460       1    1560     732    1077     733
CTETRA     11461       1    4264    4300    3595    3596
CTETRA     11462       1    1754     940    1755    1039
CTETRA     11463       1    4264     704    3595     850
CTETRA     11464       1     499     184    1060     733
CTETRA     11465       1    1161     168    1162     928
CTETRA     11466       1     168     932     408     165
CTETRA     11467       1    1597    1610     166     960
CTETRA     11468       1    3335     168     938     960
CTETRA     11469       1     168     134     938     932
CTETRA     11470       1     255     163     929     165
CTETRA     11471       1    3453    1568     987     826
CTETRA     11472       1     627     628     629     305
CTETRA     11473       1     287     825     858     288
CTETRA     11474       1    1885    1886    1901     388
CTETRA     11475       1    3453    3454    1566     496
CTETRA     11476       1    3453    1530     496     987
CTETRA     11477       1    3454     496    1507     497
CTETRA     11478       1    1530     829     827     496
CTETRA     11479       1     827     496     829     830
CTETRA     11480       1    1664     748    1666     985
CTETRA     11481       1    4161    1463    1439    3275
CTETRA     11482       1    1507     827     492     496
CTETRA     11483       1    1989    2001    2000     816
CTETRA     11484       1    3271    3275    3272    1069
CTETRA     11485       1    1453    1456    1454     539
CTETRA     11486       1     699     694     695     696
CTETRA     11487       1    3765    1460    1454    2352
CTETRA     11488       1    3035     335     334     336
CTETRA     11489       1    2472    2490    2489     198
CTETRA     11490       1    3025    3026    3033     767
CTETRA     11491       1    2625    2626    2672     338
CTETRA     11492       1    2855     517     767     338
CTETRA     11493       1    2364     539    2372     321
CTETRA     11494       1    2853    2961     694    1047
CTETRA     11495       1     462     967     717     968
CTETRA     11496       1    3207     714     717    1127
CTETRA     11497       1    4161    4162    1463    3275
CTETRA     11498       1    3206    3207     646     714
CTETRA     11499       1    2109    2110    2114     460
CTETRA     11500       1    2081     885    2109     460
CTETRA     11501       1    2229    3179    2230     757
CTETRA     11502       1    3170    3184    3175    1134
CTETRA     11503       1    2403     870     594    1100
CTETRA     11504       1    2252    2386     809     760
CTETRA     11505       1    2446    2540    2541    1003
CTETRA     11506       1    3189     671    3197     766
CTETRA     11507       1    3208    3250     885     717
CTETRA     11508       1    2388     890     809     760
CTETRA     11509       1    2110     885     462     967
CTETRA     11510       1    2113    2486    2484     664
CTETRA     11511       1    2247    2248    2249     755
CTETRA     11512       1    2345    2346    2388     890
CTETRA     11513       1    2240    2245    2243     809
CTETRA     11514       1    3890    3891    2252    2386
CTETRA     11515       1    2447    2486    2538     460
CTETRA     11516       1    2081    2109    2113     460
CTETRA     11517       1    2375     480     484     478
CTETRA     11518       1    2104     967     462     796
CTETRA     11519       1     859     523    1034     852
CTETRA     11520       1    4159    4160    1445    3277
CTETRA     11521       1    2902    1034     519     524
CTETRA     11522       1    3211    3227     434     847
CTETRA     11523       1    2843     849     859    1084
CTETRA     11524       1    3175    3177     756     758
CTETRA     11525       1    1134    1135     756    1070
CTETRA     11526       1    3170    3187    3188     469
CTETRA     11527       1    3665     859    2843     849
CTETRA     11528       1     284       9     521     523
CTETRA     11529       1     282     283       9      10
CTETRA     11530       1    2395     798    2405     328
CTETRA     11531       1    2339    2340    2415     472
CTETRA     11532       1    2461     975    2463     464
CTETRA     11533       1    1493    1497    1495     660
CTETRA     11534       1     282     859     849       9
CTETRA     11535       1    2237    1129    2238    1136
CTETRA     11536       1    2025     849    1084     852
CTETRA     11537       1    2164    3287    3285     146
CTETRA     11538       1     230     234     811     229
CTETRA     11539       1    4261    4262    2028       5
CTETRA     11540       1    3869    3870    2167    2457
CTETRA     11541       1    2451    2465    2463     698
CTETRA     11542       1    1830    1845     372    1075
CTETRA     11543       1    3296    3297    3326     762
CTETRA     11544       1    3795    2443    1354    2476
CTETRA     11545       1    1847    1075     930     821
CTETRA     11546       1     370     987     931     985
CTETRA     11547       1    3295    3296    3329     984
CTETRA     11548       1     821     113     788     260
CTETRA     11549       1     783    1067    1066     944
CTETRA     11550       1    3296    3302    3297     762
CTETRA     11551       1    3864    3865    2093    2495
CTETRA     11552       1    1520     379    1531     381
CTETRA     11553       1    1830    1075     372     374
CTETRA     11554       1    3451    3452    1567     378
CTETRA     11555       1    1895     129      38     141
CTETRA     11556       1    2246    2247     760     757
CTETRA     11557       1    1385    1386    1388     843
CTETRA     11558       1    1673     910     475     476
CTETRA     11559       1    2301    2302     543      43
CTETRA     11560       1    3471    2302      43     171
CTETRA     11561       1    3843    2138    2141    2502
CTETRA     11562       1    2548     689     903     351
CTETRA     11563       1    1677     293     476    1024
CTETRA     11564       1    2302     543      43     294
CTETRA     11565       1    2145     495    2149    1019
CTETRA     11566       1    3885    2250    2235    1133
CTETRA     11567       1    2503     686     685     701
CTETRA     11568       1    3622    2301     543     137
CTETRA     11569       1    3809    1380    2523     969
CTETRA     11570       1    3213    3214    3238     848
CTETRA     11571       1    2520    2524    2521     690
CTETRA     11572       1     543     137      43    1021
CTETRA     11573       1    1391    1392    1394     842
CTETRA     11574       1    3212    3227    3226     434
CTETRA     11575       1      79      81      75      77
CTETRA     11576       1     222     150     186      76
CTETRA     11577       1    1336    1337    1364     609
CTETRA     11578       1    1342    2544    2530     428
CTETRA     11579       1    2270     360    2271     235
CTETRA     11580       1    3804    3805    1360    2565
CTETRA     11581       1    3584     222    2271     360
CTETRA     11582       1    1382    1383    1385     969
CTETRA     11583       1     954      67     956     358
CTETRA     11584       1    1759      78      79      74
CTETRA     11585       1    3583    3584     360      68
CTETRA     11586       1    2268      67    2270     956
CTETRA     11587       1    2128    2131    2130     316
CTETRA     11588       1      69     358     357      81
CTETRA     11589       1    1637     458     580     452
CTETRA     11590       1    2106    3250    3253    3254
CTETRA     11591       1    2103    2118    2535     796
CTETRA     11592       1    3247     463    3249     968
CTETRA     11593       1    2560    2562    2561    1142
CTETRA     11594       1    4267    3582    3581      70
CTETRA     11595       1    2547    2553    2548     903
CTETRA     11596       1    3215    3237     902     566
CTETRA     11597       1    3699    3700    1297    2587
CTETRA     11598       1    2170     261    2171     169
CTETRA     11599       1     655     450     449     451
CTETRA     11600       1    3643    2284    1028     448
CTETRA     11601       1    2282    2284     448     207
CTETRA     11602       1    3644     205    2282     448
CTETRA     11603       1    3644     448    1653     454
CTETRA     11604       1     205     453     645     454
CTETRA     11605       1    3560    3643    1652     451
CTETRA     11606       1     608     605     926     603
CTETRA     11607       1    1382    1385    1384     423
CTETRA     11608       1    1309     761    2608     304
CTETRA     11609       1    2631     926    2632     878
CTETRA     11610       1     608     926     605     927
CTETRA     11611       1    1245     604    1281     602
CTETRA     11612       1    2938     569    2941     562
CTETRA     11613       1    1319    1322    1011     765
CTETRA     11614       1    2913     605    2914     564
CTETRA     11615       1    2630     563    2631     565
CTETRA     11616       1    1361    2563    1142     609
CTETRA     11617       1    2914     564     605     604
CTETRA     11618       1    3709    3710    1252    2639
CTETRA     11619       1     715     716     921     922
CTETRA     11620       1    1835     179     177     178
CTETRA     11621       1    4116    2839    1402     353
CTETRA     11622       1    2417    2440    2428    1101
CTETRA     11623       1    3572     137    3622    1024
CTETRA     11624       1    1672    1673     475     476
CTETRA     11625       1    3938    1995    2678    2679
CTETRA     11626       1    2949    2951    2950     341
CTETRA     11627       1    2002     376    2962     518
CTETRA     11628       1    3801    3802    1361    2563
CTETRA     11629       1    1437    1461    2428    1101
CTETRA     11630       1    2001     815    2685     812
CTETRA     11631       1     154     179     140     716
CTETRA     11632       1    2014    2910    2958     936
CTETRA     11633       1    2683     815    2684     812
CTETRA     11634       1     293     716     923     922
CTETRA     11635       1    3392    3543    3393     910
CTETRA     11636       1    3942    2688    2007     812
CTETRA     11637       1    2428    2440     953    1101
CTETRA     11638       1    1837    1838    1853     722
CTETRA     11639       1     272     279    1046     433
CTETRA     11640       1    1212    2709    2708    2719
CTETRA     11641       1    3731    1212    1225    2709
CTETRA     11642       1    3733    2707    1220    2708
CTETRA     11643       1     880      18     308      66
CTETRA     11644       1    3067     625    3069     211
CTETRA     11645       1    3654    4118     880     308
CTETRA     11646       1     272     432     759     278
CTETRA     11647       1    2838     271     272     278
CTETRA     11648       1    2700     503    2739     790
CTETRA     11649       1     656     657      40      41
CTETRA     11650       1    3063    3064    3071    1108
CTETRA     11651       1    1844     547     542     527
CTETRA     11652       1    1213     656    1222     658
CTETRA     11653       1    1213    1223    1222     656
CTETRA     11654       1    3070    3074    3072     656
CTETRA     11655       1    1212    1222    1225    1010
CTETRA     11656       1    1234    3079    1235     326
CTETRA     11657       1    1829     547    1029     751
CTETRA     11658       1    2723    2730    2724     681
CTETRA     11659       1    3022    3035    3023     325
CTETRA     11660       1     541     934     542     529
CTETRA     11661       1    1493     798    2409     660
CTETRA     11662       1    2732    2737    2733     999
CTETRA     11663       1    2731    2732    2740     334
CTETRA     11664       1    3904    3905    2179    2755
CTETRA     11665       1    2404     870    1100     871
CTETRA     11666       1    2176    2177    2191     803
CTETRA     11667       1    2406    2409    2407     870
CTETRA     11668       1    2755    1109    2770     188
CTETRA     11669       1    3096    1151     807    1144
CTETRA     11670       1    1493    2409    1494     660
CTETRA     11671       1    1493     870    2409     798
CTETRA     11672       1    1498    1500    1499     660
CTETRA     11673       1    2408    2409     798     660
CTETRA     11674       1    2562    1105    2567    1142
CTETRA     11675       1    2749    2771    2770     188
CTETRA     11676       1    1359    1371    1370     637
CTETRA     11677       1     864     798     799     660
CTETRA     11678       1    1373    3258    3205     863
CTETRA     11679       1    2439    2441    2440     953
CTETRA     11680       1    3905    2180    2179    2771
CTETRA     11681       1    1495     870     600     595
CTETRA     11682       1     443     178     177     180
CTETRA     11683       1    1023    1024     474    1021
CTETRA     11684       1    2558    2565    2562    1105
CTETRA     11685       1    2555    2556     970     643
CTETRA     11686       1    1865    1022    1058     177
CTETRA     11687       1    1834    1849     443     177
CTETRA     11688       1    2235    2236    2238    1136
CTETRA     11689       1     492     444     481     445
CTETRA     11690       1    3908    3909    1919    2791
CTETRA     11691       1    1834    1835     177     178
CTETRA     11692       1     654     449     647     645
CTETRA     11693       1    2354    2355    2356    1133
CTETRA     11694       1    2993    2994    1064    1141
CTETRA     11695       1    1203    2815    2814      34
CTETRA     11696       1    1211    2814     490      34
CTETRA     11697       1     891      30     453     645
CTETRA     11698       1    1916    1917    1589    1080
CTETRA     11699       1    3735    1203    2691    2815
CTETRA     11700       1    1046     313     279     310
CTETRA     11701       1    1871     825    1886     858
CTETRA     11702       1     825     891     389      32
CTETRA     11703       1    2833    2899    2898     765
CTETRA     11704       1    1886     825     891     389
CTETRA     11705       1    1871    1887    1886     891
CTETRA     11706       1    3589    3590     216     571
CTETRA     11707       1    4255    1329    1327    2836
CTETRA     11708       1    4254    1327    2833    2835
CTETRA     11709       1    1326    2833    1327    1088
CTETRA     11710       1    1288    1292    1291     570
CTETRA     11711       1    1710    1711     158     256
CTETRA     11712       1    2234    2235    2250    1133
CTETRA     11713       1    2577    1081     831     823
CTETRA     11714       1    2912    2929    2913     878
CTETRA     11715       1    2917    2919    2918     608
CTETRA     11716       1    2924    2927    2928     669
CTETRA     11717       1    1290    2922    1293     607
CTETRA     11718       1    2861    2868    2864     834
CTETRA     11719       1     416     110     100     285
CTETRA     11720       1     416     110     256     259
CTETRA     11721       1     158     255     256     161
CTETRA     11722       1    2861    2862    2916     834
CTETRA     11723       1      60     226    1027     232
CTETRA     11724       1    1885     388      60      56
CTETRA     11725       1    2862    2864    2881    1085
CTETRA     11726       1      60    1027     388     126
CTETRA     11727       1    1085    1126     303     851
CTETRA     11728       1    2584    2586    2585    1126
CTETRA     11729       1     388     391     390     435
CTETRA     11730       1    3991    3992    2055    2890
CTETRA     11731       1    1899      60    1900     126
CTETRA     11732       1    3057      42      41      35
CTETRA     11733       1    2693      34    2717      42
CTETRA     11734       1    1828     599     916     579
CTETRA     11735       1    1642      28      24     453
CTETRA     11736       1    1825     439    1840     436
CTETRA     11737       1    1825    1841    1840     439
CTETRA     11738       1    2629     568     567     569
CTETRA     11739       1    2629    2649     567     568
CTETRA     11740       1    1812    1827    1065     579
CTETRA     11741       1    2628    2649    2629    1124
CTETRA     11742       1    4231    4232    1247    2944
CTETRA     11743       1    4231    1261    2940    2944
CTETRA     11744       1    2234    2250    2248    1133
CTETRA     11745       1    2014    2017    2910     415
CTETRA     11746       1      28      31     453      48
CTETRA     11747       1     235      75      81      77
CTETRA     11748       1    1757     556    1772     418
CTETRA     11749       1      99     120     100     102
CTETRA     11750       1    1925    2991    1939     991
CTETRA     11751       1    1926     800    1125     991
CTETRA     11752       1    1959    1961     209    1125
CTETRA     11753       1    1608     202      55     447
CTETRA     11754       1    2968    2981    2969    1125
CTETRA     11755       1    2968    2969    3060    1125
CTETRA     11756       1    2968    3060    3057     622
CTETRA     11757       1    4262    1600    1087     167
CTETRA     11758       1     938     134     172     932
CTETRA     11759       1    3333    1176     202     938
CTETRA     11760       1    4203    1187    3007    3008
CTETRA     11761       1    1186    1187     620     958
CTETRA     11762       1    2975    2979    3008     620
CTETRA     11763       1    3333    3334     938     400
CTETRA     11764       1    3970     400    1610     960
CTETRA     11765       1    4204    4205    1206    2976
CTETRA     11766       1    2973    2974    2995     883
CTETRA     11767       1    3597     704    1598     175
CTETRA     11768       1    3023    3035    3028     335
CTETRA     11769       1     797     942     404     401
CTETRA     11770       1    1154     172     938     134
CTETRA     11771       1    1724     163     940     411
CTETRA     11772       1    1229    1230    1240    1104
CTETRA     11773       1     325     334     335     682
CTETRA     11774       1    2724    2725    2735     333
CTETRA     11775       1    3026    3034    3033    1097
CTETRA     11776       1    2176    2184    2177     803
CTETRA     11777       1    2183    3107    3106     193
CTETRA     11778       1    1041     673     674    1102
CTETRA     11779       1    1426    1427    1433     677
CTETRA     11780       1    3101    3105    3104    1111
CTETRA     11781       1    4048    4049    2183    3107
CTETRA     11782       1    3103    3110    3106    1110
CTETRA     11783       1    2237     867    1129     817
CTETRA     11784       1    2779     963    2782     962
CTETRA     11785       1    3103    3106     995    1110
CTETRA     11786       1    3970    3334     400     960
CTETRA     11787       1    1109    1111    1110     803
CTETRA     11788       1    3904    2755    2176    2765
CTETRA     11789       1    1921     994     194     189
CTETRA     11790       1    1693    1542     170     314
CTETRA     11791       1    2227    2241    2243     611
CTETRA     11792       1    2203    2204    2210     406
CTETRA     11793       1    2392     484     818     478
CTETRA     11794       1    4062    3120    2226    3121
CTETRA     11795       1    3089    3120    3136     611
CTETRA     11796       1     752     787     753     757
CTETRA     11797       1    4063    4064    2228    3088
CTETRA     11798       1    2219     988    3122     612
CTETRA     11799       1    1724     255    1725     163
CTETRA     11800       1    3678     170    3679     136
CTETRA     11801       1     202     447     400     173
CTETRA     11802       1    1089     953    1069     955
CTETRA     11803       1    3280    1069    1090    1121
CTETRA     11804       1    4079    3152    2163    3153
CTETRA     11805       1    3272    1090    3280    1069
CTETRA     11806       1    2393    2418    2424     865
CTETRA     11807       1    3162     869    3163     662
CTETRA     11808       1    2417    2418    1101     865
CTETRA     11809       1    3166     268     802     661
CTETRA     11810       1    3272    3277    1090    1069
CTETRA     11811       1     889     982     721     132
CTETRA     11812       1    4086    3291    2077    3293
CTETRA     11813       1    3403     844    3404     628
CTETRA     11814       1    1870     289    1885      56
CTETRA     11815       1    4117      23     271     353
CTETRA     11816       1    3401     273    1008     881
CTETRA     11817       1     920     195     281     898
CTETRA     11818       1     273     881     352     277
CTETRA     11819       1     627     628     305      73
CTETRA     11820       1    4067    2230    3179    3180
CTETRA     11821       1    2197    2204    2203     409
CTETRA     11822       1    2216    2422    2423     327
CTETRA     11823       1     890     760     753     787
CTETRA     11824       1    1565     195     281     588
CTETRA     11825       1    3172    3173    3189     670
CTETRA     11826       1    2358    2361    2362     766
CTETRA     11827       1    1838     920     724     195
CTETRA     11828       1     610    1140     818     612
CTETRA     11829       1    1839     436     440     920
CTETRA     11830       1    2345     890    2388     760
CTETRA     11831       1    3173     670    1114     359
CTETRA     11832       1    2400    1100    1129     871
CTETRA     11833       1    3220    3226    3227     434
CTETRA     11834       1    2522    2526     691     687
CTETRA     11835       1    1855     287     289     439
CTETRA     11836       1    4118    4119    3219     271
CTETRA     11837       1    4112    4113    2143    2826
CTETRA     11838       1    2825    3223    3222     700
CTETRA     11839       1     880     308     271      66
CTETRA     11840       1      20     277      17      64
CTETRA     11841       1    3826    3827    2821     352
CTETRA     11842       1    3402     273    3403     627
CTETRA     11843       1    2145     495    1019     329
CTETRA     11844       1     580     453     452     582
CTETRA     11845       1    3217    3218    3228     759
CTETRA     11846       1    2502     685    2515     558
CTETRA     11847       1    2521    2525    2522     841
CTETRA     11848       1    2136    2139    2138     701
CTETRA     11849       1    3839    2147    2319     495
CTETRA     11850       1    2147    2319     495     557
CTETRA     11851       1    3212    3213    3239     892
CTETRA     11852       1     691     841     892     842
CTETRA     11853       1    1637     580     453     452
CTETRA     11854       1    1640     580     575      48
CTETRA     11855       1     891     647     389      32
CTETRA     11856       1    4101    4102    2108    3255
CTETRA     11857       1    4010    2014    2910    2958
CTETRA     11858       1    2106    2110    2111     885
CTETRA     11859       1    4154    4155    1334    3307
CTETRA     11860       1    1334    3306    3307     782
CTETRA     11861       1    3878    2210    2204    2429
CTETRA     11862       1     580     582     452     531
CTETRA     11863       1    1638      24    1639     459
CTETRA     11864       1    1653     451     452     454
CTETRA     11865       1     453     582     645     454
CTETRA     11866       1    2269     954     956     706
CTETRA     11867       1    1776    1791     957     707
CTETRA     11868       1    1344    2468    2449    1052
CTETRA     11869       1    3303    3310    3308     784
CTETRA     11870       1     956     957     358      81
CTETRA     11871       1    2269     954      67     956
CTETRA     11872       1    2470     984     354     693
CTETRA     11873       1    1344    2449    1357     943
CTETRA     11874       1    1349     783    1352     762
CTETRA     11875       1    1760      79     356     957
CTETRA     11876       1    2481    2482    2494     587
CTETRA     11877       1    3439    1555     235     187
CTETRA     11878       1    3581    2268    2269      67
CTETRA     11879       1    2084    2086    2085     587
CTETRA     11880       1     356      82     357      81
CTETRA     11881       1    4145    1335    1368    3320
CTETRA     11882       1    3329     785    1068     984
CTETRA     11883       1    3296     783     762     984
CTETRA     11884       1    1335    1336    1368    1131
CTETRA     11885       1    2531    2532    1142     609
CTETRA     11886       1    2480     945    1066     984
CTETRA     11887       1    2444    2445    2542     428
CTETRA     11888       1    3321    3322    3332     646
CTETRA     11889       1    3420    1538    1533     744
CTETRA     11890       1    4145    4146    1335    3320
CTETRA     11891       1    2531    2542    2541     609
CTETRA     11892       1    1361    1142    1365     609
CTETRA     11893       1    3454    1507    1515     497
CTETRA     11894       1     124    1078    1094     237
CTETRA     11895       1    1848    1864    1863     385
CTETRA     11896       1    1155     124    1078    1094
CTETRA     11897       1    3390    3545    3544    1670
CTETRA     11898       1    1158    1159     399     965
CTETRA     11899       1    1624    1625    1626      91
CTETRA     11900       1    1700     114     744     117
CTETRA     11901       1    3350    1601     909     399
CTETRA     11902       1    1604     399     121     964
CTETRA     11903       1    3347    1155     124     121
CTETRA     11904       1    3604    3605    2265     839
CTETRA     11905       1    3348    1159     121     399
CTETRA     11906       1    3348     121    1604     399
CTETRA     11907       1    4153    3306    1348    3310
CTETRA     11908       1    3266    3267    3299     199
CTETRA     11909       1    3631     361    1665     749
CTETRA     11910       1    3567    3631    3568    1665
CTETRA     11911       1    3583    2270      67     360
CTETRA     11912       1    4268     954    1631      70
CTETRA     11913       1    3476    2296     791     718
CTETRA     11914       1    3568    1665    3631     361
CTETRA     11915       1    4268    3621    1631     954
CTETRA     11916       1    1861     821     912     537
CTETRA     11917       1    1632      69    1633      70
CTETRA     11918       1    3567    3632    3631     749
CTETRA     11919       1    1791    1792    1553     707
CTETRA     11920       1    1791    1554      94     707
CTETRA     11921       1    3436    2253    3437     706
CTETRA     11922       1    3437     956    1554     707
CTETRA     11923       1    3296    3300     783     944
CTETRA     11924       1    3972    3371    1613      55
CTETRA     11925       1    1614    1616     446    1092
CTETRA     11926       1    3371    1175    1177      55
CTETRA     11927       1    3678    1708    3679     170
CTETRA     11928       1    3974    3370    3369     918
CTETRA     11929       1    2077     219    3291     197
CTETRA     11930       1    1601    1602    1633     964
CTETRA     11931       1    2452    2453    2490     218
CTETRA     11932       1    3985    1604    1601     399
CTETRA     11933       1    1683    1699     743     744
CTETRA     11934       1    3743    3744    1201    2794
CTETRA     11935       1    2766     963    2779     961
CTETRA     11936       1    1697    1698     466     743
CTETRA     11937       1    3828    3829    2324     135
CTETRA     11938       1    3985    3349    1604     399
CTETRA     11939       1    2430     801    2433     409
CTETRA     11940       1    3668    3669    2830     520
CTETRA     11941       1    3471    3472    1587      43
CTETRA     11942       1    3746    3747    1188    2780
CTETRA     11943       1    3145    3164     410     328
CTETRA     11944       1    2420     328     409     661
CTETRA     11945       1    2766    2773    2779     963
CTETRA     11946       1      58    1002     722     634
CTETRA     11947       1    2461     218     975     464
CTETRA     11948       1    1868      58    1002     722
CTETRA     11949       1    1883    1002      58      59
CTETRA     11950       1    1882    1061    1002     441
CTETRA     11951       1    1192    3005    1194     487
CTETRA     11952       1    1194    3009    1195     958
CTETRA     11953       1    4201    1195    1194    3009
CTETRA     11954       1    1186    1187    1206     620
CTETRA     11955       1    2805    2809    2808     948
CTETRA     11956       1    1882    1002      59     441
CTETRA     11957       1    3575    1643    3660     442
CTETRA     11958       1    1319    1323    1322     765
CTETRA     11959       1    3575    3660    3659     442
CTETRA     11960       1    2299     442     292     227
CTETRA     11961       1     230     811     808     229
CTETRA     11962       1     441     227     294     295
CTETRA     11963       1    1061     441     294     295
CTETRA     11964       1    1203    1204    1217      34
CTETRA     11965       1    3662    2302    2298     543
CTETRA     11966       1    3659    2299    2300     981
CTETRA     11967       1    2816     771    2819     490
CTETRA     11968       1      59     522     635      12
CTETRA     11969       1    2503    2504    2517    1019
CTETRA     11970       1    1002     923     634     295
CTETRA     11971       1    1002     634     635     295
CTETRA     11972       1    1829    1844    1029     547
CTETRA     11973       1     457     458     452     526
CTETRA     11974       1    3685    1029    1844     527
CTETRA     11975       1    3685     574    1029     582
CTETRA     11976       1    1264     854    2645     978
CTETRA     11977       1    1018     344    1097     336
CTETRA     11978       1    3025    3029    3026     767
CTETRA     11979       1    1183    1231    1230     770
CTETRA     11980       1    2954     856     508     569
CTETRA     11981       1     655     452     451     454
CTETRA     11982       1    3684    3685     655     582
CTETRA     11983       1    1051     934     450     727
CTETRA     11984       1    1258    1259    1265     978
CTETRA     11985       1    3248    3249     714     968
CTETRA     11986       1    2916    2922    2917     607
CTETRA     11987       1    1286    1287    1290     607
CTETRA     11988       1    2576    2577    2659     823
CTETRA     11989       1    4240    1287    2919     607
CTETRA     11990       1    2533     967    2534     968
CTETRA     11991       1    2103    2112    2107     967
CTETRA     11992       1    2104     796     462     793
CTETRA     11993       1     462     463     796     968
CTETRA     11994       1    2554     993    2560     968
CTETRA     11995       1    3234    3260     637     971
CTETRA     11996       1    1729    1745    1744      78
CTETRA     11997       1    3699    2587    1300    2588
CTETRA     11998       1    2540     460     967     717
CTETRA     11999       1    2533    2560     714     968
CTETRA     12000       1    1321    1324    2320     552
CTETRA     12001       1     462     796     967     968
CTETRA     12002       1    1312    1313    1316     761
CTETRA     12003       1    2831    2832    2895    1088
CTETRA     12004       1    3453    1566    1568     826
CTETRA     12005       1    2321    2325    2323     552
CTETRA     12006       1    3690    1324    1330    2325
CTETRA     12007       1    3452    3453    1568     987
CTETRA     12008       1    1802    1803    1817     826
CTETRA     12009       1    2141    2144    2503     701
CTETRA     12010       1    3842    2141    2144    2503
CTETRA     12011       1    3691    3692    1321    2320
CTETRA     12012       1    2618    2623    2622    1016
CTETRA     12013       1    1324    1330    2325     552
CTETRA     12014       1     128     147     120     217
CTETRA     12015       1    1315    1318    2606    1011
CTETRA     12016       1     931     496     178     830
CTETRA     12017       1    1202     489     488     487
CTETRA     12018       1    3985    3350    3349     399
CTETRA     12019       1    1320    2876    1323     765
CTETRA     12020       1    3304    3305    3306     782
CTETRA     12021       1     496     826     178     498
CTETRA     12022       1    2799    2801    2800     505
CTETRA     12023       1    3054    3055    3056     621
CTETRA     12024       1    1343    1347    1348     782
CTETRA     12025       1    1207    1209    1208     621
CTETRA     12026       1    1206    1207    1208     620
CTETRA     12027       1    3297    3298    3331     762
CTETRA     12028       1    1206    2976    2965     620
CTETRA     12029       1    2810     952    2817     623
CTETRA     12030       1    3693    2606    1318    2621
CTETRA     12031       1    2975    2980     620     506
CTETRA     12032       1    3326     762     763     693
CTETRA     12033       1    3379    1660    3380     379
CTETRA     12034       1     370     369     821     260
CTETRA     12035       1    1377    2523    1380     969
CTETRA     12036       1    3227     759     434     847
CTETRA     12037       1    1404    2837    3218     759
CTETRA     12038       1    1321    1322    1325     551
CTETRA     12039       1    3226     434     533     687
CTETRA     12040       1    2513     687    2522     692
CTETRA     12041       1    2822    2823     432     350
CTETRA     12042       1    3824     723     274     279
CTETRA     12043       1    2305    1099    2509    1007
CTETRA     12044       1    1383     843    1385     969
CTETRA     12045       1     970     971     973     422
CTETRA     12046       1    3810    3811    1386    2527
CTETRA     12047       1    1390    1391    1393     846
CTETRA     12048       1    4131    4132    1393    3241
CTETRA     12049       1    3211    3227    3212     434
CTETRA     12050       1    1398    2823    1401    1007
CTETRA     12051       1    1170     430     886     251
CTETRA     12052       1    3980    1627    3359     886
CTETRA     12053       1     246     243     251     363
CTETRA     12054       1    1718     362     244     243
CTETRA     12055       1    1419    2851    1044     675
CTETRA     12056       1    4192    1419    2851    1044
CTETRA     12057       1    1416    1417    1419    1044
CTETRA     12058       1    3269    1031    3270    1032
CTETRA     12059       1    1440    1450    2332     955
CTETRA     12060       1    3273    3278    3274    1090
CTETRA     12061       1    1440    1089    2332    1030
CTETRA     12062       1    1444    3278    1090    1032
CTETRA     12063       1    4158    1444    1443    3278
CTETRA     12064       1    1879    1895    1894     129
CTETRA     12065       1    1717    1718     362     244
CTETRA     12066       1    1334     974    3307    1032
CTETRA     12067       1    3304    3306    3310     784
CTETRA     12068       1    3269    3270    3307    1032
CTETRA     12069       1    1333    1442    1441    1032
CTETRA     12070       1     617    1126     851     618
CTETRA     12071       1    1732     989     362     578
CTETRA     12072       1    4242    1296    1293     853
CTETRA     12073       1    1717     362    1732     989
CTETRA     12074       1    4166    1500    1487    3158
CTETRA     12075       1    2221    2237     867    1129
CTETRA     12076       1    1479    1485    2411     864
CTETRA     12077       1    4164    4165    1481    3087
CTETRA     12078       1    3276    1036    1033    1035
CTETRA     12079       1    1036     865    1101     663
CTETRA     12080       1    3155    3156    3159     799
CTETRA     12081       1    1570     281     195     157
CTETRA     12082       1    3396    3397    1516     155
CTETRA     12083       1    3146    3147    3159     799
CTETRA     12084       1    2395     864    2408     798
CTETRA     12085       1    2400    2404    1100     871
CTETRA     12086       1    2404    2405    2406     798
CTETRA     12087       1    2220    3182    3183     867
CTETRA     12088       1    1152    1129    1149    1100
CTETRA     12089       1    1288    2589    2590     570
CTETRA     12090       1    1818     178     931     826
CTETRA     12091       1    1803     826    1566     498
CTETRA     12092       1    1666    1668     829     481
CTETRA     12093       1    1849    1850    1865     177
CTETRA     12094       1    1863    1864     412     385
CTETRA     12095       1    3285    3288    3293     146
CTETRA     12096       1    1833     384     931     178
CTETRA     12097       1    1507     496     492     497
CTETRA     12098       1    3387    1668     827     829
CTETRA     12099       1    3456     181    1517     140
CTETRA     12100       1    3386    1666    3546    1668
CTETRA     12101       1    2286     789     728     739
CTETRA     12102       1    3638    2286     789     728
CTETRA     12103       1    3563    3639    3638     728
CTETRA     12104       1    1896     441    1897     171
CTETRA     12105       1    1655     541    1051     725
CTETRA     12106       1    3563    3638    1657     725
CTETRA     12107       1    1730     746      82     238
CTETRA     12108       1     954      67     358      70
CTETRA     12109       1    3437    2269     956     706
CTETRA     12110       1    3588     554    3589     216
CTETRA     12111       1    3438    2270     235     956
CTETRA     12112       1    2498    2525    2499     642
CTETRA     12113       1    3272    3275    3277    1069
CTETRA     12114       1    1439    3275    1463    1035
CTETRA     12115       1    4272    1626      96      97
CTETRA     12116       1    4273    3614    3613     895
CTETRA     12117       1    2335    1123    1121    1122
CTETRA     12118       1    4266    1633    1602      68
CTETRA     12119       1    1445    1090    3277    1069
CTETRA     12120       1    1447    1448    1449     955
CTETRA     12121       1    1437     953    1462    1101
CTETRA     12122       1    2426     953    2442     955
CTETRA     12123       1    1731    1746      82     357
CTETRA     12124       1    1438    1451    1448     953
CTETRA     12125       1    3594    3595    2272     477
CTETRA     12126       1    1889     174    1890    1017
CTETRA     12127       1    1588     130     131     141
CTETRA     12128       1    1875    1890     174     792
CTETRA     12129       1     449     207    1063    1042
CTETRA     12130       1    1062     174    1063     727
CTETRA     12131       1    1051    1096     728     727
CTETRA     12132       1     174    1096     739    1132
CTETRA     12133       1     841     690    1009     843
CTETRA     12134       1    1057     792     174     726
CTETRA     12135       1    1421     676    2331     677
CTETRA     12136       1    3573    3662    1676     543
CTETRA     12137       1    1426    1430     675     677
CTETRA     12138       1    1782    1120     276     919
CTETRA     12139       1    3570    3625    3571    1671
CTETRA     12140       1    3419    3420    1533    1078
CTETRA     12141       1    2330     680    1098     677
CTETRA     12142       1    3482    3483    1683    1546
CTETRA     12143       1    1682    1683    1698     743
CTETRA     12144       1     521     286     109       3
CTETRA     12145       1    1704    1705      36     366
CTETRA     12146       1    2330    2370    2331     677
CTETRA     12147       1    2368    2369    2370     639
CTETRA     12148       1    1688     247    1703     243
CTETRA     12149       1    1427    2370    1435     677
CTETRA     12150       1    1688    1540    1534     243
CTETRA     12151       1    4271    1626    1628      90
CTETRA     12152       1    1615     918     240    1079
CTETRA     12153       1    1692    1532    1543     314
CTETRA     12154       1    1721    1722    1737     836
CTETRA     12155       1    1768    1783    1782     276
CTETRA     12156       1     946    1098     680     677
CTETRA     12157       1     721     382     131     132
CTETRA     12158       1     443     474     385     445
CTETRA     12159       1    1864    1058    1879     412
CTETRA     12160       1    1879     412    1058     382
CTETRA     12161       1     909     591     116     907
CTETRA     12162       1    1743     420     398     421
CTETRA     12163       1    3440    2267    2278     833
CTETRA     12164       1     434    1099     846     847
CTETRA     12165       1     519     571     520     107
CTETRA     12166       1    1601    1634     909      69
CTETRA     12167       1    3602    3603    2263      57
CTETRA     12168       1    1862    1878     720     412
CTETRA     12169       1    1746    1762    1761     997
CTETRA     12170       1    1732    1733    1748     578
CTETRA     12171       1    1862     720     821     383
CTETRA     12172       1    1756    1757    1772     418
CTETRA     12173       1    1771     499     418     456
CTETRA     12174       1    1751    1752    1766     249
CTETRA     12175       1    1795    1551    1552     636
CTETRA     12176       1    3592     283    2276     740
CTETRA     12177       1    2276     740     283     455
CTETRA     12178       1    3607    3608    2255     239
CTETRA     12179       1    1796     417    1120     919
CTETRA     12180       1    1740     159     414     499
CTETRA     12181       1    3499    3500    1793    1556
CTETRA     12182       1     414     499     159     182
CTETRA     12183       1    1770     184     499     733
CTETRA     12184       1    3489    3490    1690    1536
CTETRA     12185       1    1359     637    1105     972
CTETRA     12186       1    1770     499    1771     456
CTETRA     12187       1    1703    1704    1719     247
CTETRA     12188       1    1706     836    1721     513
CTETRA     12189       1    3608    3609    2260     239
CTETRA     12190       1    2842     859    1034    1084
CTETRA     12191       1    3341     860     101     467
CTETRA     12192       1    3558    3646    3559    1639
CTETRA     12193       1     786      99     201     102
CTETRA     12194       1    3686    1843    1828     536
CTETRA     12195       1    1810    1826    1825    1065
CTETRA     12196       1     101     467       2     110
CTETRA     12197       1    3343    3344      99     201
CTETRA     12198       1    1268     517    1270     977
CTETRA     12199       1    1857    1858    1873     581
CTETRA     12200       1     860     347     553     104
CTETRA     12201       1    3648    3649    2281     269
CTETRA     12202       1    4228    2857    1267    3030
CTETRA     12203       1    1850    1865     177    1020
CTETRA     12204       1    1847    1862     821     383
CTETRA     12205       1    3386    3387    1530     829
CTETRA     12206       1    3631    3632     112     749
CTETRA     12207       1    1058     131     382     132
CTETRA     12208       1    3452    1568    1567     828
CTETRA     12209       1    3388    1668     492     827
CTETRA     12210       1    4290    1523    1521     525
CTETRA     12211       1     179     497     178     291
CTETRA     12212       1     981     227     522     635
CTETRA     12213       1    1509    1510     914     437
CTETRA     12214       1    3659    3660    2299     442
CTETRA     12215       1    1095     509     516     737
CTETRA     12216       1    3572    3623    3622     137
CTETRA     12217       1    3656    2280    2291      21
CTETRA     12218       1     913     648      89     649
CTETRA     12219       1    1780      89     636     640
CTETRA     12220       1      36     366     868     837
CTETRA     12221       1    1765     648    1780      89
CTETRA     12222       1    1765     913     648      89
CTETRA     12223       1     449     206     207    1137
CTETRA     12224       1    1764      87     913      89
CTETRA     12225       1    3649     778    2281     269
CTETRA     12226       1    1900      60     388     126
CTETRA     12227       1    1620     241     868     649
CTETRA     12228       1    3611    1622    3612     649
CTETRA     12229       1    3477    2279    2286     739
CTETRA     12230       1    3683    1873    3684     582
CTETRA     12231       1    1829    1830    1845     547
CTETRA     12232       1     372     547     374     373
CTETRA     12233       1    1362    1367    1365    1147
CTETRA     12234       1    3524    3525    1917    1593
CTETRA     12235       1    3464     206    1593    1137
CTETRA     12236       1    2066    2598    2596     613
CTETRA     12237       1     778     390     389     391
CTETRA     12238       1    1871     287     825     858
CTETRA     12239       1    3526    3527    1915    1595
CTETRA     12240       1     241     868     250      62
CTETRA     12241       1      99     466    1082    1094
CTETRA     12242       1    1928    1929    1934     777
CTETRA     12243       1    4042    1940    1948    2988
CTETRA     12244       1    1714    1729     236     747
CTETRA     12245       1     398     745     236     119
CTETRA     12246       1    1935    1941    1940     773
CTETRA     12247       1     860     101     467       2
CTETRA     12248       1    1712    1713     745     466
CTETRA     12249       1    3913    2805    1942    2806
CTETRA     12250       1    2697    2715    2698     196
CTETRA     12251       1    3061     203     209     204
CTETRA     12252       1    1727     420     416     745
CTETRA     12253       1    3920    1927    1937    2705
CTETRA     12254       1     284     283     740     286
CTETRA     12255       1    3956    2065    2579    2598
CTETRA     12256       1     398     420     745     119
CTETRA     12257       1    2612    2613    2623    1016
CTETRA     12258       1    2967    3057      39     622
CTETRA     12259       1     831     342     613    1055
CTETRA     12260       1    2622    1011     551    1016
CTETRA     12261       1    3921    1962    1927    2704
CTETRA     12262       1     551    1088     779     573
CTETRA     12263       1    1322    1325     551    1088
CTETRA     12264       1    3720    3721    1257    2727
CTETRA     12265       1    2345     754     753     755
CTETRA     12266       1    3719    3720    1253    2568
CTETRA     12267       1    2831    1056    2832    1088
CTETRA     12268       1    3666     519    2902    1034
CTETRA     12269       1    2344    2363    2345     755
CTETRA     12270       1    2901     765     764    1014
CTETRA     12271       1    2895     765    2901    1014
CTETRA     12272       1     362     244     243     363
CTETRA     12273       1     699    1012     694     696
CTETRA     12274       1    1922    1923    1998    1013
CTETRA     12275       1    1260    3029    1266     767
CTETRA     12276       1    1923    1972    1924     345
CTETRA     12277       1     366    1083     775     248
CTETRA     12278       1    1981    1982    1984     999
CTETRA     12279       1    2733    2736    2734     999
CTETRA     12280       1    3361     584    1625      61
CTETRA     12281       1    1972    1986    2573     345
CTETRA     12282       1    3042    1000    3043    1013
CTETRA     12283       1      61     775     365      62
CTETRA     12284       1    2572    2573    2737     998
CTETRA     12285       1    4013    2005    2008    2955
CTETRA     12286       1    4012    2008    2011    2957
CTETRA     12287       1     584     868     365     364
CTETRA     12288       1     584     586      91     364
CTETRA     12289       1    3415     172    1154     134
CTETRA     12290       1     284     521     107     106
CTETRA     12291       1     742     466     743     237
CTETRA     12292       1    3967    2028    2026    2312
CTETRA     12293       1    2247    2249    2251     755
CTETRA     12294       1     742     743    1078     237
CTETRA     12295       1    3627    2293     889     982
CTETRA     12296       1    2930    1143    2931    1054
CTETRA     12297       1    2020    2021    2029    1053
CTETRA     12298       1    2293     889     982     721
CTETRA     12299       1    2248    2250    2249     755
CTETRA     12300       1    2051    2052    2057     340
CTETRA     12301       1    2927    2930    1118    1143
CTETRA     12302       1    2858    2859    2926     343
CTETRA     12303       1    2056     343    2858    1116
CTETRA     12304       1    2581    2584    2585    1126
CTETRA     12305       1    3390    1670    3544    1672
CTETRA     12306       1     829     931     987     985
CTETRA     12307       1    2063    2075    2076     342
CTETRA     12308       1    3570    1669    3626    1671
CTETRA     12309       1    3851    2118    2115    2550
CTETRA     12310       1    3365    1621    1619     511
CTETRA     12311       1    3427    1174     515     917
CTETRA     12312       1     512     513     515     917
CTETRA     12313       1    1705    1721    1720      36
CTETRA     12314       1    3977    3363    1623      62
CTETRA     12315       1    3977    3364    3363      62
CTETRA     12316       1    1174     512     515     917
CTETRA     12317       1    1735      36    1736     250
CTETRA     12318       1    2356    2357    2363     754
CTETRA     12319       1     253     648     254     729
CTETRA     12320       1    1703     247    1718     243
CTETRA     12321       1      36     511     513     510
CTETRA     12322       1    2073    2075    1006     342
CTETRA     12323       1    4104    2117    2119    3245
CTETRA     12324       1    2106    3253    3250     885
CTETRA     12325       1    3561    3642    3641    1028
CTETRA     12326       1    3850    3851    2115    2550
CTETRA     12327       1    2865     832    1006     619
CTETRA     12328       1     349     342     831    1055
CTETRA     12329       1     832    1081     831     619
CTETRA     12330       1    2127    2130    2129     351
CTETRA     12331       1    3236     642    3237     644
CTETRA     12332       1    2066    2596    2067     884
CTETRA     12333       1     832     831    1081     823
CTETRA     12334       1    1919    2181    2791     189
CTETRA     12335       1    3958    2067    2066    2596
CTETRA     12336       1    3103    1111     995    1102
CTETRA     12337       1    2661     897    1113     339
CTETRA     12338       1    3907    3908    2181    2791
CTETRA     12339       1    3911    1930    1932    2802
CTETRA     12340       1    1919    2791    2783     191
CTETRA     12341       1    2576    2659     669     823
CTETRA     12342       1    3695    1309    1312    2608
CTETRA     12343       1    2058    2668    2669     340
CTETRA     12344       1    2195    3094    2201     652
CTETRA     12345       1    2666     349     831    1055
CTETRA     12346       1    2576     617    1081     823
CTETRA     12347       1    2326    2327    2762     781
CTETRA     12348       1    2199    2205    2762     781
CTETRA     12349       1    2421     327     409     328
CTETRA     12350       1    3143    3166    3154     802
CTETRA     12351       1    2577     831     349     823
CTETRA     12352       1    2215    2216    2222     327
CTETRA     12353       1    2231    3174    2232     758
CTETRA     12354       1    2230    3179    3180     757
CTETRA     12355       1    2230    2248    2247     755
CTETRA     12356       1    4067    2231    2230    3180
CTETRA     12357       1    2577    2666     349     831
CTETRA     12358       1    2928    1118     343     669
CTETRA     12359       1    2860    2928     343     823
CTETRA     12360       1    1762    1763    1777     576
CTETRA     12361       1    1792    1556    1553     705
CTETRA     12362       1    2257     583     705    1139
CTETRA     12363       1    2513    2514    2526     687
CTETRA     12364       1    4279    3602    1607     559
CTETRA     12365       1    3887    3888    2249    2353
CTETRA     12366       1    2221    2239    2237    1129
CTETRA     12367       1     730    1059    1120     919
CTETRA     12368       1     873     548     425      46
CTETRA     12369       1    3576    3659    3658     981
CTETRA     12370       1    1607     447    1612     559
CTETRA     12371       1    4116      23    4117     353
CTETRA     12372       1    3658    3659    2300     981
CTETRA     12373       1    3677     929    1724     411
CTETRA     12374       1     275     731     734     735
CTETRA     12375       1    3764    1454    2349    2352
CTETRA     12376       1    2350    2351    2360     538
CTETRA     12377       1    1464    3204    3191     301
CTETRA     12378       1    2397    2398    2423     327
CTETRA     12379       1    3891    3892    2240    2385
CTETRA     12380       1    2239    2398    2402    1129
CTETRA     12381       1    1679    1544     134     139
CTETRA     12382       1    1679    1680    1695     939
CTETRA     12383       1    3416    1541    1545     928
CTETRA     12384       1    3415    1544     172     134
CTETRA     12385       1    3415    1161    3416     928
CTETRA     12386       1    4114    2827    2150     330
CTETRA     12387       1    2147    2148    2151     494
CTETRA     12388       1    2145    2148     495     330
CTETRA     12389       1      60     388      11      56
CTETRA     12390       1    1480     659     864     869
CTETRA     12391       1    2417    2424    2418     865
CTETRA     12392       1    2395    2408    2405     798
CTETRA     12393       1    1825     593     436     588
CTETRA     12394       1    1855    1856     287     439
CTETRA     12395       1    2321    2322    2622     550
CTETRA     12396       1    3162    3163    3164     662
CTETRA     12397       1    4118     880     308     271
CTETRA     12398       1    1854    1855     289     440
CTETRA     12399       1    2338    2359    2339     666
CTETRA     12400       1    1490    1491    1501     594
CTETRA     12401       1    3138    3147    3139     600
CTETRA     12402       1    1440    2332    1089     955
CTETRA     12403       1    1089    1069     953    1121
CTETRA     12404       1    1854    1025     724     440
CTETRA     12405       1    1686     590    1537     245
CTETRA     12406       1    2425    2426    2442     955
CTETRA     12407       1    3797    1338    1355    2545
CTETRA     12408       1    2443    2473    2444     945
CTETRA     12409       1    1538     744     965     117
CTETRA     12410       1    2479     945     984     693
CTETRA     12411       1     244     115     590     592
CTETRA     12412       1    3356    1169     589     430
CTETRA     12413       1    4201    1194    3005    3009
CTETRA     12414       1    3857    2484    2113    2486
CTETRA     12415       1    1169     589     251     590
CTETRA     12416       1    3882    3883    2239    2402
CTETRA     12417       1     906     989     357     592
CTETRA     12418       1    1157     367     589     590
CTETRA     12419       1    3354    1157     367     589
CTETRA     12420       1     605     604     926     603
CTETRA     12421       1      11      66      71      72
CTETRA     12422       1    4237    2947    2915     604
CTETRA     12423       1    4237    2915    1280     604
CTETRA     12424       1    1279    2947     604     561
CTETRA     12425       1    2512    1148    2515     692
CTETRA     12426       1    1244    1245    1281     602
CTETRA     12427       1    1382     969    1385     423
CTETRA     12428       1    1281    1282    1283     602
CTETRA     12429       1    3212    3226    3213     892
CTETRA     12430       1    2525     689     692     848
CTETRA     12431       1    1386    1389    1388     843
CTETRA     12432       1    1280     604    2915     603
CTETRA     12433       1    2508    2528    2526     691
CTETRA     12434       1      18     226      11      12
CTETRA     12435       1      60     226     522      12
CTETRA     12436       1     403     309     308     312
CTETRA     12437       1     844     628     723     306
CTETRA     12438       1    1340    3298     762     763
CTETRA     12439       1    1648     899     634      22
CTETRA     12440       1    1355    2444    2443    2545
CTETRA     12441       1    3797    3798    1338    2543
CTETRA     12442       1    3654      18    2291     431
CTETRA     12443       1    1338    2543    1342     428
CTETRA     12444       1     738    1092     509    1079
CTETRA     12445       1    1617     918     514     240
CTETRA     12446       1    2497    2512    2498     689
CTETRA     12447       1    3247     993     463     968
CTETRA     12448       1     902     903     566     642
CTETRA     12449       1    2831    2903     882    1015
CTETRA     12450       1    1178     514     918     515
CTETRA     12451       1    1167    1174     512     515
CTETRA     12452       1    1617     512    1619     240
CTETRA     12453       1     918     514     240     516
CTETRA     12454       1    1361    1366    2564     609
CTETRA     12455       1    2533    2554    2560     968
CTETRA     12456       1    1167     512     514     515
CTETRA     12457       1    2078    2090    2088     200
CTETRA     12458       1     462     796     463     793
CTETRA     12459       1    3321    3332    3330    1131
CTETRA     12460       1    2462    1030    1089     464
CTETRA     12461       1    2077    2078    2159     219
CTETRA     12462       1    1359    1363    1360    1105
CTETRA     12463       1    2561    2567    2563    1142
CTETRA     12464       1    2452    2461     218     975
CTETRA     12465       1    1337    2530    2564     609
CTETRA     12466       1    2649    2650     567     568
CTETRA     12467       1    1248    1249    1263     568
CTETRA     12468       1    3712    3713    1263    2651
CTETRA     12469       1    2077    2158    3293     219
CTETRA     12470       1    3711    3712    1249    2650
CTETRA     12471       1    1996    2852    3041    1012
CTETRA     12472       1    1924     345    2676     697
CTETRA     12473       1    1018     694     699    1012
CTETRA     12474       1    1771     418    1772     456
CTETRA     12475       1    1991    1992    1047     696
CTETRA     12476       1    1269    2940     856     507
CTETRA     12477       1     814     815     937     341
CTETRA     12478       1     833     396     835     224
CTETRA     12479       1    3939    1989    1995    2679
CTETRA     12480       1      91     837      93      88
CTETRA     12481       1      36    1026     366     837
CTETRA     12482       1    3692    3693    1318    2621
CTETRA     12483       1    1168    1170     886     251
CTETRA     12484       1     584      61     365     868
CTETRA     12485       1    3900    3901    2193    2763
CTETRA     12486       1    3903    2176    2191    2765
CTETRA     12487       1    3979    3360    3359     584
CTETRA     12488       1    3004    3005    3015     487
CTETRA     12489       1    2895    1015    1088     765
CTETRA     12490       1    2555    2559    2557     970
CTETRA     12491       1    4197    4198    1193    3014
CTETRA     12492       1    3259     993     971     644
CTETRA     12493       1    2120     641    2549     796
CTETRA     12494       1    3373    4284    1176     202
CTETRA     12495       1    3901    3902    2188    2764
CTETRA     12496       1    3247     993    3259     644
CTETRA     12497       1    2618     551     105    1016
CTETRA     12498       1    3372    3373    1175      55
CTETRA     12499       1    2534     796    2554     968
CTETRA     12500       1    3971    3373    1608     202
CTETRA     12501       1    2557    1105    2562     993
CTETRA     12502       1     598     331     916     531
CTETRA     12503       1    3750    3751    1415    2774
CTETRA     12504       1     961    1064     488    1141
CTETRA     12505       1    2751    2772    2766     877
CTETRA     12506       1    2322    2618    2622     550
CTETRA     12507       1    2001    2685    2004     812
CTETRA     12508       1    1029     536     751     526
CTETRA     12509       1     934     528     527     529
CTETRA     12510       1    2751    2766    2752     877
CTETRA     12511       1    2179    2755    1109     803
CTETRA     12512       1    2766    2767    2773    1041
CTETRA     12513       1    3096    3127    3126    1151
CTETRA     12514       1     452     582     527     526
CTETRA     12515       1     934     451     527     528
CTETRA     12516       1    1640     598     575     580
CTETRA     12517       1     963     876     961     877
CTETRA     12518       1    3907    2181    2749    2791
CTETRA     12519       1    2755    2770    2771     188
CTETRA     12520       1    1919    1920    2181     189
CTETRA     12521       1    2749    2770    2750     188
CTETRA     12522       1     575      48     580      51
CTETRA     12523       1    4115    2827    4125     980
CTETRA     12524       1    2784    2795    2802     773
CTETRA     12525       1    2784    2796    2795     772
CTETRA     12526       1    3577     980    4125      25
CTETRA     12527       1    3878    2429    2204    2430
CTETRA     12528       1    2281     269     778     405
CTETRA     12529       1    2796    2809    2806     949
CTETRA     12530       1    3739    3740    1185    2812
CTETRA     12531       1    3649    2292    2281     778
CTETRA     12532       1     778      33     269     857
CTETRA     12533       1    2949     814    2956     937
CTETRA     12534       1    3415    1544    4286     172
CTETRA     12535       1    1765     913     249     648
CTETRA     12536       1    1766     648     249     417
CTETRA     12537       1    1752     275    1767     249
CTETRA     12538       1    1736     250     836     509
CTETRA     12539       1    1736     836    1737     509
CTETRA     12540       1    2832    2833    2898    1088
CTETRA     12541       1    1735      36     250     837
CTETRA     12542       1    2832    2835    2833    1088
CTETRA     12543       1    1704    1705     366     248
CTETRA     12544       1    2050    2858    2935    1116
CTETRA     12545       1    2659    2666    2661     349
CTETRA     12546       1    2661    2666    2667     339
CTETRA     12547       1    2577    2580    2578     831
CTETRA     12548       1    1795     417    1551     636
CTETRA     12549       1    2051    2057    2056     340
CTETRA     12550       1    1616     240    1618    1092
CTETRA     12551       1    1781    1782    1796    1120
CTETRA     12552       1    3432     730     729     417
CTETRA     12553       1    1552     636     894     640
CTETRA     12554       1    2184    2185    2187    1110
CTETRA     12555       1    4245    1302    2863    2882
CTETRA     12556       1     275     249     509     242
CTETRA     12557       1    1731     746     906      82
CTETRA     12558       1    3607     239    2255     730
CTETRA     12559       1     446     239     730    1092
CTETRA     12560       1    2889    2890    2906     267
CTETRA     12561       1    2032    2033    2039     596
CTETRA     12562       1    3586    3672     150     151
CTETRA     12563       1     214     833     150     149
CTETRA     12564       1    2278     150     214     833
CTETRA     12565       1    2925     878    2929     927
CTETRA     12566       1    2004    2007    2006     812
CTETRA     12567       1    1286    1290    1289     607
CTETRA     12568       1    3587    3588    2278     150
CTETRA     12569       1    3586    2267     222     150
CTETRA     12570       1      60     522     232     225
CTETRA     12571       1    1898      60    1899     232
CTETRA     12572       1    4232    1247    2944    2945
CTETRA     12573       1    3657     981    2280      21
CTETRA     12574       1    1002      59     441     227
CTETRA     12575       1    2290     431    2291     226
CTETRA     12576       1     489     795     486     883
CTETRA     12577       1    3469    3470    1586     227
CTETRA     12578       1    2438    2439    1101    1119
CTETRA     12579       1    2973    2978    2974     883
CTETRA     12580       1    2977    2978    2983     952
CTETRA     12581       1    2981    2991    2990     991
CTETRA     12582       1     771     506     620     623
CTETRA     12583       1    3026    3029    3031     768
CTETRA     12584       1    3085    3163    1036     663
CTETRA     12585       1     854     767     337     978
CTETRA     12586       1    1260    3031    3029     768
CTETRA     12587       1    1918    1137    1593    1080
CTETRA     12588       1     205     645     448     454
CTETRA     12589       1    3644    3645     205     459
CTETRA     12590       1    4213    3070    1224    3074
CTETRA     12591       1    3686     574    1843     536
CTETRA     12592       1    3463    4290    1577     530
CTETRA     12593       1    1827    1828     916     579
CTETRA     12594       1     941     916     331     579
CTETRA     12595       1     458     331     598     531
CTETRA     12596       1    1522    1524     458     530
CTETRA     12597       1    3523    1813    1576    1577
CTETRA     12598       1    2009     935     937     812
CTETRA     12599       1    3462    1524    3463     331
CTETRA     12600       1    2053     233    2054     270
CTETRA     12601       1    4212    1214    3073    3074
CTETRA     12602       1     761     302     764    1049
CTETRA     12603       1    2876    2901     765     297
CTETRA     12604       1    1315    1319    1011     761
CTETRA     12605       1    2009     935    2012     936
CTETRA     12606       1    2594    2600    2599     346
CTETRA     12607       1    2897     267    1071    1049
CTETRA     12608       1    1417    1420     675     676
CTETRA     12609       1    1828    1843     916     536
CTETRA     12610       1    4189    1430    1429    3115
CTETRA     12611       1    1842    1843     574     916
CTETRA     12612       1    2831     631    1056     882
CTETRA     12613       1    2831     882    1056    1015
CTETRA     12614       1    3943    2010    2688    2689
CTETRA     12615       1    3133    3136    3135    1140
CTETRA     12616       1    2365    2371     320     321
CTETRA     12617       1    2347    2382    2391     359
CTETRA     12618       1    2618    2622     550     551
CTETRA     12619       1    2309    2619     553     862
CTETRA     12620       1     864     865     869     662
CTETRA     12621       1    1322    1088     551     765
CTETRA     12622       1    3438     235    1555      94
CTETRA     12623       1    3439    2271     186     235
CTETRA     12624       1    1715     746    1730     747
CTETRA     12625       1    3398    1645     901     155
CTETRA     12626       1    4066    4067    2230    3179
CTETRA     12627       1    1516     155    1518     157
CTETRA     12628       1     722     154     395     922
CTETRA     12629       1    1646     442     981      22
CTETRA     12630       1    1867    1868    1002     722
CTETRA     12631       1    3569    3629    3628     982
CTETRA     12632       1    1852     722    1867     923
CTETRA     12633       1    3398     901     156     155
CTETRA     12634       1    4176    1482    3202    3203
CTETRA     12635       1     901     156     155     898
CTETRA     12636       1    1482    3202    3203     471
CTETRA     12637       1    4178    1476    3203    3204
CTETRA     12638       1    3211    3217    3227     847
CTETRA     12639       1    3400    3401    1008     881
CTETRA     12640       1    1930    2802    2795     773
CTETRA     12641       1    3211     434    3212     846
CTETRA     12642       1    2112    2537    2536     967
CTETRA     12643       1    3809    2523    2520     969
CTETRA     12644       1    2525     848     690     642
CTETRA     12645       1    1936    2806    1942     949
CTETRA     12646       1    1105     970     971     993
CTETRA     12647       1    1376    1379    1378     424
CTETRA     12648       1    1387    1388    1390     419
CTETRA     12649       1    2784     772    2795     773
CTETRA     12650       1    2106    3250    3254     462
CTETRA     12651       1    1949     949     948     951
CTETRA     12652       1    2980     620     506     623
CTETRA     12653       1    2546    2555    2554     643
CTETRA     12654       1    2108    3254    3255     793
CTETRA     12655       1    3247    3249    3248     968
CTETRA     12656       1    1951    1952    1953     948
CTETRA     12657       1    2798     795     489     883
CTETRA     12658       1    3474    2297    2294     719
CTETRA     12659       1    4103    4104    2119    3245
CTETRA     12660       1    3246    3261    3263     794
CTETRA     12661       1    3335    1161    1154     938
CTETRA     12662       1    4286    1176    1154     172
CTETRA     12663       1    4286    1544    1542     139
CTETRA     12664       1    1757     421     556     418
CTETRA     12665       1    3344     127    3345    1082
CTETRA     12666       1    4259     128     221     143
CTETRA     12667       1     103     572     201     108
CTETRA     12668       1     745     466     742     237
CTETRA     12669       1     906     746     115     907
CTETRA     12670       1    4105    2122    2117    3262
CTETRA     12671       1    2155    2156    2162     801
CTETRA     12672       1     466     237     100     120
CTETRA     12673       1    3828    3829     135     122
CTETRA     12674       1    4160    4161    1439    3275
CTETRA     12675       1    3084    3279    3282    1122
CTETRA     12676       1    1155    1164     124    1094
CTETRA     12677       1    2439     953    1101    1119
CTETRA     12678       1    2171     261    2172     133
CTETRA     12679       1    1468    1475    1474    1033
CTETRA     12680       1    2394    2419    2418     865
CTETRA     12681       1    4165    4166    1487    3158
CTETRA     12682       1    3086    3161    3087     869
CTETRA     12683       1    3681    1590    4295    1592
CTETRA     12684       1    1500     659    3156     799
CTETRA     12685       1    1467    1101    1468     865
CTETRA     12686       1    3781    1461    2417    2428
CTETRA     12687       1    4155    4156    1442    3307
CTETRA     12688       1    3478    1096    1590    1132
CTETRA     12689       1    2687    2689     935     933
CTETRA     12690       1    1903    1918    1137    1042
CTETRA     12691       1    1630     585     709      92
CTETRA     12692       1    3050    3060    3051      42
CTETRA     12693       1    4141    3323    1367    1147
CTETRA     12694       1     742    1078     915     237
CTETRA     12695       1     709     710     358     577
CTETRA     12696       1    2253     583     709     705
CTETRA     12697       1     709     358     706     577
CTETRA     12698       1    3390    1514    1515     497
CTETRA     12699       1    3390    3545    1670     492
CTETRA     12700       1    3621     954    2253     709
CTETRA     12701       1    1778      84    1779    1138
CTETRA     12702       1    4272    3614    4273    1624
CTETRA     12703       1    1763    1778    1777     576
CTETRA     12704       1    1748    1764    1763      87
CTETRA     12705       1    2399    2403     866    1100
CTETRA     12706       1    1895      38    1911     141
CTETRA     12707       1    3631     112    2294     361
CTETRA     12708       1    3051    3060    3058     203
CTETRA     12709       1    1847    1863    1862     383
CTETRA     12710       1    1881    1061    1882     441
CTETRA     12711       1    2298     543    2302     294
CTETRA     12712       1    1061     441      38     294
CTETRA     12713       1    1881     441    1896      38
CTETRA     12714       1    3978    3363    3362      61
CTETRA     12715       1    2126    2127    2129     351
CTETRA     12716       1    3360    3361    1172     584
CTETRA     12717       1     365     246     247     775
CTETRA     12718       1    1897      59    1898     225
CTETRA     12719       1    3463     331     530     599
CTETRA     12720       1    3353    3354    1157     367
CTETRA     12721       1    3350    3351    1156     909
CTETRA     12722       1    3354     367    1635     904
CTETRA     12723       1    1197     489    1201     487
CTETRA     12724       1    1029     574     536     526
CTETRA     12725       1    3005     486    3006     958
CTETRA     12726       1    1202    2794    2754     488
CTETRA     12727       1    1196    1201    1202     487
CTETRA     12728       1    1208    1210     771     490
CTETRA     12729       1    3412    1637    3555     458
CTETRA     12730       1    4210    4211    1216    3075
CTETRA     12731       1    4208    4209    1215    3054
CTETRA     12732       1    2966    2967    3056     621
CTETRA     12733       1    4206    4207    1207    3055
CTETRA     12734       1    3413    3555    3414     458
CTETRA     12735       1    4290    1522    1523     530
CTETRA     12736       1    3687    1814     751    1112
CTETRA     12737       1    3414    1522     458     530
CTETRA     12738       1     574     531     536     526
CTETRA     12739       1    1637     458     598     580
CTETRA     12740       1    3412     458    1524     598
CTETRA     12741       1     530     536     531     526
CTETRA     12742       1    4207    4208    1205    3054
CTETRA     12743       1     598     941     916     331
CTETRA     12744       1    3685    3686    1029     574
CTETRA     12745       1    3685    1858     574     582
CTETRA     12746       1    3461     626     966    1065
CTETRA     12747       1    1858     581     574     582
CTETRA     12748       1    1842     581     941     916
CTETRA     12749       1    1359    1362    1142    1147
CTETRA     12750       1    1842    1857     581     574
CTETRA     12751       1     458     580     452     531
CTETRA     12752       1     214     387     220     217
CTETRA     12753       1    3065    3077    3076     326
CTETRA     12754       1    1239     682    1241     332
CTETRA     12755       1    1239    1241    1242     332
CTETRA     12756       1    1271    1272     855     507
CTETRA     12757       1    2711    2717    2716     657
CTETRA     12758       1    1697     256     258     259
CTETRA     12759       1      99     468     466    1094
CTETRA     12760       1    1369    3323    3322     646
CTETRA     12761       1    1713     236    1728     745
CTETRA     12762       1     236     745     742     237
CTETRA     12763       1     398     387     421     119
CTETRA     12764       1     554     216     214     215
CTETRA     12765       1     355     148     147     144
CTETRA     12766       1    1698     742     466     743
CTETRA     12767       1    4238    4239    1278    2920
CTETRA     12768       1    1411    1412    1417     679
CTETRA     12769       1     680     679     683     676
CTETRA     12770       1    2776    2777    2778     679
CTETRA     12771       1    4239    4240    1287    2919
CTETRA     12772       1    1359    1363    1105    1142
CTETRA     12773       1    3104    3105    3108    1111
CTETRA     12774       1    3101    1111    1102    1144
CTETRA     12775       1    2330    2331     680     677
CTETRA     12776       1    2849     672    2850    1043
CTETRA     12777       1     940    1039     404     183
CTETRA     12778       1    3674     942    1039    1077
CTETRA     12779       1    3324    3330    3332    1131
CTETRA     12780       1    3600    2254     407     813
CTETRA     12781       1     159     940     163     183
CTETRA     12782       1    1072     781     806     280
CTETRA     12783       1     407     732     175     183
CTETRA     12784       1    1358    1367    1362    1147
CTETRA     12785       1     844     279     532     306
CTETRA     12786       1    3446      19    3447     277
CTETRA     12787       1    2837    2839    2838     278
CTETRA     12788       1    1359    1362    1363    1142
CTETRA     12789       1    4119     309    3220     272
CTETRA     12790       1    2541     609     428    1003
CTETRA     12791       1    3846    3847    2129    2552
CTETRA     12792       1    4119     271     308     310
CTETRA     12793       1    1046     824     279     313
CTETRA     12794       1    3205    3256    3206     863
CTETRA     12795       1    3618    3619    2257     583
CTETRA     12796       1    1625     584      91     868
CTETRA     12797       1    3809    2520    1383     969
CTETRA     12798       1    1372    1377    1376     422
CTETRA     12799       1    1379     969    1382     423
CTETRA     12800       1     578     710     357     904
CTETRA     12801       1    1732     578    1747     357
CTETRA     12802       1    1332    1441    1440    1030
CTETRA     12803       1    2426    2427    2441     953
CTETRA     12804       1    1443    3270    3278    1032
CTETRA     12805       1     545     373     547     529
CTETRA     12806       1    1830     372    1845     547
CTETRA     12807       1    1654    1656     545     541
CTETRA     12808       1    1903    1137     449    1042
CTETRA     12809       1    3683     655     449     582
CTETRA     12810       1    1465    1471    1470     665
CTETRA     12811       1    2284    1028     448     207
CTETRA     12812       1    1888     449    1903     647
CTETRA     12813       1     554     152    1056     215
CTETRA     12814       1    1716     906    1731     746
CTETRA     12815       1    1745     356      79      77
CTETRA     12816       1    2224     484     988     612
CTETRA     12817       1    1464    1470    3204     301
CTETRA     12818       1    1454    2349    2352     300
CTETRA     12819       1    3132    1038     318     478
CTETRA     12820       1      67     360      80      68
CTETRA     12821       1    4178    4179    1470    3204
CTETRA     12822       1    4179    4180    1464    3191
CTETRA     12823       1    1005     788     726    1004
CTETRA     12824       1    3562    3641    3640    1051
CTETRA     12825       1    3562    1655    1650    1051
CTETRA     12826       1    3639    1051    2285     728
CTETRA     12827       1    2283    2285    1051    1096
CTETRA     12828       1    1592     207    1137    1042
CTETRA     12829       1    3682    1063    1889    1132
CTETRA     12830       1    4103    3245    2119     793
CTETRA     12831       1    1029     751     547     529
CTETRA     12832       1    3641    1650    1028    1051
CTETRA     12833       1    2284    1028     207    1096
CTETRA     12834       1    3641    2283    1051    1096
CTETRA     12835       1    1527     544     379     381
CTETRA     12836       1     545     547     751     529
CTETRA     12837       1    1859    1860    1057     542
CTETRA     12838       1    1057     174    1062     542
CTETRA     12839       1    3682    1889    1904    1132
CTETRA     12840       1    2242    2243     371     612
CTETRA     12841       1    2384    2385    2389     371
CTETRA     12842       1    3122    1140    3136     612
CTETRA     12843       1    4173    1504    3137    3200
CTETRA     12844       1    1114     890     610     359
CTETRA     12845       1    2346    2391     890     359
CTETRA     12846       1    3114     318     482     483
CTETRA     12847       1     610     818     478     359
CTETRA     12848       1    1841     287     439     888
CTETRA     12849       1    3605    1614     446     839
CTETRA     12850       1    3461    1511    1506     626
CTETRA     12851       1    3580    3818    3838    2147
CTETRA     12852       1     703    1079     840     737
CTETRA     12853       1    1855    1856    1871     287
CTETRA     12854       1    1767    1120     275     276
CTETRA     12855       1      53      44     494      46
CTETRA     12856       1    1738    1753     731     213
CTETRA     12857       1    1841    1842    1857     287
CTETRA     12858       1    3465    2287    2288     206
CTETRA     12859       1    3408    3409    1506     750
CTETRA     12860       1    3897    2381    2326     653
CTETRA     12861       1    3677     212     896     213
CTETRA     12862       1    2145    2146    2148     330
CTETRA     12863       1    3676     560     734     213
CTETRA     12864       1     287     581     825      31
CTETRA     12865       1     249    1120     417     242
CTETRA     12866       1    3430    3431    1559    1059
CTETRA     12867       1    3677     896     929     411
CTETRA     12868       1    1095     509     836     516
CTETRA     12869       1     925     140     181     716
CTETRA     12870       1     910     179     181     497
CTETRA     12871       1     634     923     293     295
CTETRA     12872       1    3456    1569    1572     181
CTETRA     12873       1    1025     724     440      15
CTETRA     12874       1    3379    3551    3550    1658
CTETRA     12875       1     881      16      15     898
CTETRA     12876       1     544     379     381     373
CTETRA     12877       1    1814    1830    1829     547
CTETRA     12878       1    3449    1526    3450     546
CTETRA     12879       1    1867    1002    1061     923
CTETRA     12880       1    3397    1518    1516     155
CTETRA     12881       1    1674     293    1675     921
CTETRA     12882       1     370     987     378     828
CTETRA     12883       1    3625    1671    3626     889
CTETRA     12884       1    1838    1839    1854     724
CTETRA     12885       1    3380    1531    1520     379
CTETRA     12886       1    3379    3550    3380    1660
CTETRA     12887       1    3379    3380    1520     379
CTETRA     12888       1    1875     912    1876     792
CTETRA     12889       1     457     452     528     526
CTETRA     12890       1    3380    3550    3381    1660
CTETRA     12891       1    3636    1659     789    1005
CTETRA     12892       1    2326    2380    2327     780
CTETRA     12893       1    1853     724      58     722
CTETRA     12894       1     156     157     155     898
CTETRA     12895       1    1853    1025      58     724
CTETRA     12896       1    2063    1055     342     340
CTETRA     12897       1    2658    2661    2665    1113
CTETRA     12898       1     343     349     832     823
CTETRA     12899       1    2916    2917     668     607
CTETRA     12900       1     834     832    1081     823
CTETRA     12901       1    3479    1679    1544    1545
CTETRA     12902       1    3583    2270    2268      67
CTETRA     12903       1    4257    1329    3672     152
CTETRA     12904       1    2576    1081    2577     823
CTETRA     12905       1     524     105    1015    1014
CTETRA     12906       1    3438    1555    1554      94
CTETRA     12907       1     906      82     746     907
CTETRA     12908       1    2311    2615    2614     596
CTETRA     12909       1    2597    2599    2600     613
CTETRA     12910       1    2054    2061    2060     270
CTETRA     12911       1    2888     270     267    1049
CTETRA     12912       1    2599    2600     884     346
CTETRA     12913       1    4148    4149    1349    3309
CTETRA     12914       1    2594    2604    2617    1049
CTETRA     12915       1    1320    2876     765     297
CTETRA     12916       1    1309    1312    2608     761
CTETRA     12917       1    1602     964    1606      80
CTETRA     12918       1    2878    2879    2888    1049
CTETRA     12919       1    3463    1577    1576     599
CTETRA     12920       1    1810    1825     593    1065
CTETRA     12921       1    1827     916     941     579
CTETRA     12922       1    3577      24      28      25
CTETRA     12923       1     427     315     313     312
CTETRA     12924       1    3411    1525     575     598
CTETRA     12925       1    3475    2294     718     719
CTETRA     12926       1    1524    1525     598     331
CTETRA     12927       1    2200     652     781     806
CTETRA     12928       1    3662     543    2298     292
CTETRA     12929       1    3463    1576     331     599
CTETRA     12930       1    4279    1612    3604      57
CTETRA     12931       1     575     598     941     580
CTETRA     12932       1    2194     806    2200     280
CTETRA     12933       1    2298     292     543     294
CTETRA     12934       1    3371    1613      55     703
CTETRA     12935       1    1618     239     240     241
CTETRA     12936       1      55     447     202     173
CTETRA     12937       1    2299     981     442     227
CTETRA     12938       1    4279    1607    1612     559
CTETRA     12939       1    4278    3604    4279    1612
CTETRA     12940       1    1618     240    1619     241
CTETRA     12941       1    3400     901    3445     881
CTETRA     12942       1    3447      19    1648      22
CTETRA     12943       1     634     293     923     922
CTETRA     12944       1     292     634     293     295
CTETRA     12945       1      58     899      16      22
CTETRA     12946       1    4276    3608    3607     239
CTETRA     12947       1     239     240     242    1092
CTETRA     12948       1    3985    1601    3350     399
CTETRA     12949       1    4259    4260     135     128
CTETRA     12950       1    1061     294     293     295
CTETRA     12951       1    3035     334     325     501
CTETRA     12952       1    2741    2742     616     790
CTETRA     12953       1    2722    2729    2728     332
CTETRA     12954       1    4266    1602    1603      68
CTETRA     12955       1    1979     614    1980     615
CTETRA     12956       1    1982    1985     999     616
CTETRA     12957       1     686     701    1019     329
CTETRA     12958       1    2136     558     905     701
CTETRA     12959       1    3214    3229     905     692
CTETRA     12960       1    1177    1178     703     314
CTETRA     12961       1    3368    1617     918     514
CTETRA     12962       1    1631     710    1632      70
CTETRA     12963       1    3974    3368    1617     918
CTETRA     12964       1    1167     514    1178     515
CTETRA     12965       1    3368     918    1178     514
CTETRA     12966       1    3564    1659    1657     789
CTETRA     12967       1    1800    1564     377    1074
CTETRA     12968       1     747     742     744     915
CTETRA     12969       1    1707    1095    1722     836
CTETRA     12970       1    3586     150     222     151
CTETRA     12971       1    1684    1685    1700     744
CTETRA     12972       1    1731    1747    1746     357
CTETRA     12973       1    1761     356     997     957
CTETRA     12974       1     747     744     114     915
CTETRA     12975       1    1690    1083    1535     597
CTETRA     12976       1    3487    3488    1688    1540
CTETRA     12977       1    1702    1703    1718     243
CTETRA     12978       1    1627     886     585     586
CTETRA     12979       1    1702    1718    1717     244
CTETRA     12980       1     918     314     515     516
CTETRA     12981       1    1750     250     913     837
CTETRA     12982       1    1688    1534    1689     248
CTETRA     12983       1    1059     797     276     810
CTETRA     12984       1    1727    1743    1742     420
CTETRA     12985       1    1706    1707     836     513
CTETRA     12986       1    1722    1723    1738    1095
CTETRA     12987       1     103     101     860     108
CTETRA     12988       1    1743    1744    1759     386
CTETRA     12989       1    3670    2831     631    1056
CTETRA     12990       1    2170     169    2174     146
CTETRA     12991       1    3564    3636    1659     789
CTETRA     12992       1    1604     964     121     125
CTETRA     12993       1     789     788     725     726
CTETRA     12994       1    1734    1735    1750     837
CTETRA     12995       1    1062     542     174     727
CTETRA     12996       1    1767    1768    1782     276
CTETRA     12997       1    2285    2286     728     739
CTETRA     12998       1    1764    1779    1778      84
CTETRA     12999       1    3564    3637    3636     789
CTETRA     13000       1     913      87     837      88
CTETRA     13001       1    1051     725     541     727
CTETRA     13002       1    1763    1764    1778      84
CTETRA     13003       1    4272    3615    3614      97
CTETRA     13004       1    1845    1860     542     537
CTETRA     13005       1    1846    1075     821     537
CTETRA     13006       1    3379    1527     544     379
CTETRA     13007       1    1845    1075    1846     537
CTETRA     13008       1     648     241     250     242
CTETRA     13009       1    1767    1782    1120     276
CTETRA     13010       1    1783    1798    1797     919
CTETRA     13011       1    1844     547    1845     542
CTETRA     13012       1    3435    1556    1550    1138
CTETRA     13013       1    1845     372    1075     537
CTETRA     13014       1    3499    1793    1794    1550
CTETRA     13015       1    3500    1792    1793    1556
CTETRA     13016       1    2258      90     583    1139
CTETRA     13017       1    1859    1875    1874    1057
CTETRA     13018       1    2285     739     728    1096
CTETRA     13019       1    3445      19    3446     352
CTETRA     13020       1    3399    1647    3445     901
CTETRA     13021       1    1649    1654     263     529
CTETRA     13022       1    3685     582    1029     527
CTETRA     13023       1    3520    1811    1810    1578
CTETRA     13024       1    1827     941     888     579
CTETRA     13025       1    1844    1859    1062     542
CTETRA     13026       1     633     252     354     693
CTETRA     13027       1    1877    1893    1892     819
CTETRA     13028       1    1669    1671    1670     474
CTETRA     13029       1    1847    1848    1863     383
CTETRA     13030       1     982     721     132     413
CTETRA     13031       1    3249     717     714     968
CTETRA     13032       1    1877    1878    1893     819
CTETRA     13033       1    3529    1912    1913    1586
CTETRA     13034       1    2534     967     796     968
CTETRA     13035       1    2487    2488    2493     808
CTETRA     13036       1    2110    2114     460     967
CTETRA     13037       1    1867    1883    1882    1002
CTETRA     13038       1    1850     177     153    1020
CTETRA     13039       1    1839     440     724     920
CTETRA     13040       1    1806    1569    1807     140
CTETRA     13041       1    3246    3251     463     793
CTETRA     13042       1    1887    1888    1903     647
CTETRA     13043       1    3682    1132    1904    1042
CTETRA     13044       1    3249     463     462     968
CTETRA     13045       1    3536    3537    1905    1580
CTETRA     13046       1    1902     389     647    1080
CTETRA     13047       1    2532     717     714    1127
CTETRA     13048       1    3381    3549    3382    1086
CTETRA     13049       1     372     374    1075     375
CTETRA     13050       1    3526    1916    1589    1595
CTETRA     13051       1    3265    3266    3294     230
CTETRA     13052       1    1846    1075    1847     821
CTETRA     13053       1    2996    2997    3003     777
CTETRA     13054       1    1847     821     930     383
CTETRA     13055       1    2971    2998    3000     776
CTETRA     13056       1    4043    1934    1940    2971
CTETRA     13057       1    1846     821    1861     537
CTETRA     13058       1    1662     369    1664     986
CTETRA     13059       1    3958    2067    2596    2603
CTETRA     13060       1    1661    1663     369     113
CTETRA     13061       1    1860    1057     542     537
CTETRA     13062       1     930    1075     370     821
CTETRA     13063       1    2891    2893    2892     270
CTETRA     13064       1    3091     299    3193     359
CTETRA     13065       1    1453    1459     299     300
CTETRA     13066       1    2600    2603     884     270
CTETRA     13067       1    2347     300    2382     359
CTETRA     13068       1    1893    1909    1908     190
CTETRA     13069       1    4100    2108    2106    3254
CTETRA     13070       1    2995     486     795     883
CTETRA     13071       1    2117    3245    3262     794
CTETRA     13072       1    2534    2535    2546     796
CTETRA     13073       1    1197     505     489     958
CTETRA     13074       1     449     645     582     454
CTETRA     13075       1    2103     967    2104     796
CTETRA     13076       1    2103    2107    2104     967
CTETRA     13077       1    1029     527     582     526
CTETRA     13078       1    2496    2515    2497    1148
CTETRA     13079       1    3464    2287     206     207
CTETRA     13080       1    2133    2136    2135     558
CTETRA     13081       1    2104    2107     462     967
CTETRA     13082       1    1859    1057    1062     542
CTETRA     13083       1     547     542     527     529
CTETRA     13084       1    3462    1576    1573     579
CTETRA     13085       1    2432    2435     801     900
CTETRA     13086       1    2154    2432    2431     801
CTETRA     13087       1    1028     450     934     451
CTETRA     13088       1    3862    3863    2095    2493
CTETRA     13089       1    1181    1415    1414     924
CTETRA     13090       1    1114     752     753     670
CTETRA     13091       1    3177     757     756     758
CTETRA     13092       1    3875    2154    2155    2432
CTETRA     13093       1    2403    2404    2416     870
CTETRA     13094       1    2169    2172    2171     261
CTETRA     13095       1     802     409     328     661
CTETRA     13096       1    2435    2436     801     976
CTETRA     13097       1    3138    3139    3188     874
CTETRA     13098       1    2154    2155    2432     801
CTETRA     13099       1    3137    3138    3186     473
CTETRA     13100       1    2340     472    2358    1070
CTETRA     13101       1    1503    1504    3200     473
CTETRA     13102       1     472     594     874     866
CTETRA     13103       1    1773     741     556     187
CTETRA     13104       1    1775    1776    1791     957
CTETRA     13105       1    1789    1790    1555      94
CTETRA     13106       1    2773    2774    2782     963
CTETRA     13107       1    2463     975     698     464
CTETRA     13108       1    2174     169    3287     146
CTETRA     13109       1    2458    2459    2460     145
CTETRA     13110       1    2164    2165    2170     146
CTETRA     13111       1    3502    1790    1554    1555
CTETRA     13112       1    1790    1791    1554      94
CTETRA     13113       1    1931     191     994     189
CTETRA     13114       1    3003     994     777    1045
CTETRA     13115       1      95    1139      84      85
CTETRA     13116       1    1760      79     957      75
CTETRA     13117       1    2250    1133    2353     755
CTETRA     13118       1    3888    3889    2251    2344
CTETRA     13119       1    3431    2266    2255     730
CTETRA     13120       1    1752    1753     275     731
CTETRA     13121       1    4277    3605    4278    1614
CTETRA     13122       1    1767     249     275    1120
CTETRA     13123       1    4278    3604    1612     839
CTETRA     13124       1    4278    1612    1614     839
CTETRA     13125       1    4275    3611    3610     253
CTETRA     13126       1    2691    2692    2815      34
CTETRA     13127       1    3049    3050    3072      41
CTETRA     13128       1    3049    3057    3050      41
CTETRA     13129       1    2774    2777    2776     924
CTETRA     13130       1    1212    2708    1220    2719
CTETRA     13131       1    1219      40    2691      35
CTETRA     13132       1    3057      42      39     622
CTETRA     13133       1    1889    1904    1132    1017
CTETRA     13134       1    1860    1861    1876     912
CTETRA     13135       1    3050    3057      42      41
CTETRA     13136       1    1216    1218    1217      35
CTETRA     13137       1    3048    3056    3049      39
CTETRA     13138       1    3649    3650    2292     778
CTETRA     13139       1    1887     891     654     647
CTETRA     13140       1     287     941     581      51
CTETRA     13141       1     403     307     309     313
CTETRA     13142       1    3156    3157    3160     659
CTETRA     13143       1    3663    3664    2844     850
CTETRA     13144       1    2023    2314    2026     322
CTETRA     13145       1    1467    2424    2417     865
CTETRA     13146       1    1461    1467    2417    1101
CTETRA     13147       1     282     284     859       9
CTETRA     13148       1    3835    3836    2315     347
CTETRA     13149       1    1461    2417    2428    1101
CTETRA     13150       1    3163     662     869     663
CTETRA     13151       1    3338    3339    1160     324
CTETRA     13152       1    1467    1468    1474     865
CTETRA     13153       1    1785     456    1557     733
CTETRA     13154       1    2315     348     347     322
CTETRA     13155       1    3664    3665    2843     849
CTETRA     13156       1    1082     237     466     120
CTETRA     13157       1    3816    2821    1405     350
CTETRA     13158       1     453     452     582     454
CTETRA     13159       1    1427    1435    1433     677
CTETRA     13160       1    3754    3755    1421    2331
CTETRA     13161       1    4291    1592    1590    1042
CTETRA     13162       1    2367     317    1050     480
CTETRA     13163       1    3756    1435    1427    2370
CTETRA     13164       1     207    1096    1063    1042
CTETRA     13165       1     780     650    1115     781
CTETRA     13166       1    1028    1096    1051     450
CTETRA     13167       1     751     536     525     526
CTETRA     13168       1    2328    1115    2379    1037
CTETRA     13169       1    2761    2765    2764     803
CTETRA     13170       1     575     580     941      51
CTETRA     13171       1    3128    3131     872    1038
CTETRA     13172       1    3577    3578      28      24
CTETRA     13173       1    2328    2378    2329    1037
CTETRA     13174       1    2329    2378    2368    1098
CTETRA     13175       1    3096    1072     807    1151
CTETRA     13176       1    2366    2383     479     317
CTETRA     13177       1     172     173     136     139
CTETRA     13178       1    3428    1178     314     515
CTETRA     13179       1    1491    2412    1492     594
CTETRA     13180       1    2230     757    3180     758
CTETRA     13181       1    3774    1493    2407    2409
CTETRA     13182       1    3774    1493    1492    2407
CTETRA     13183       1    2824     429     548     493
CTETRA     13184       1    1753     734     275     731
CTETRA     13185       1    3972    1613    1608      55
CTETRA     13186       1    1449    1451    2426     953
CTETRA     13187       1    2062    2873    2874     343
CTETRA     13188       1     290     312     435      72
CTETRA     13189       1    1046     279     824     433
CTETRA     13190       1    4117    2838    2839     353
CTETRA     13191       1    4085    4086    2077    3293
CTETRA     13192       1    2824     533     429     700
CTETRA     13193       1    2452    2490    2472     198
CTETRA     13194       1    2145    2146     330     329
CTETRA     13195       1    2419     865     662     663
CTETRA     13196       1    1394    1395    1397    1099
CTETRA     13197       1    1395    1398    1397    1007
CTETRA     13198       1    1395    2305    1398    1007
CTETRA     13199       1     533     434     433     687
CTETRA     13200       1     432     433     434     691
CTETRA     13201       1     700     686     685     687
CTETRA     13202       1    3849    2120    2123    2549
CTETRA     13203       1    2547    2556    2555     643
CTETRA     13204       1    2117    2122    2121     908
CTETRA     13205       1    3222     700    3229     687
CTETRA     13206       1    1313     761     304     297
CTETRA     13207       1    2499    2500    2559     970
CTETRA     13208       1    2514    1048    2526     687
CTETRA     13209       1    2142    2145    2144    1019
CTETRA     13210       1    2141    2142    2144     701
CTETRA     13211       1    2133     905    2136     558
CTETRA     13212       1    2507    2526     824     433
CTETRA     13213       1    3267    3284    3268     975
CTETRA     13214       1    2586     570    2591     618
CTETRA     13215       1     174     792     739     726
CTETRA     13216       1     821     537     788    1004
CTETRA     13217       1    2582    2588    2583     303
CTETRA     13218       1    3698    3699    1300    2588
CTETRA     13219       1    1315    1011    2606     761
CTETRA     13220       1    2279     791     789     739
CTETRA     13221       1    3476     791    1580     911
CTETRA     13222       1    1326    2899    2833     765
CTETRA     13223       1    1015    1016    1011    1014
CTETRA     13224       1    3638    3639    2285     728
CTETRA     13225       1    1311    2887    2885     298
CTETRA     13226       1    1328    1331    1330     779
CTETRA     13227       1    1330    2324     552     135
CTETRA     13228       1     448     207     449     645
CTETRA     13229       1    1322     551    1011     765
CTETRA     13230       1    2287     205      26     206
CTETRA     13231       1    1653     448     451     454
CTETRA     13232       1    2895    2896    2903    1014
CTETRA     13233       1    1307    1308    1311     298
CTETRA     13234       1    1872     581    1873     654
CTETRA     13235       1    4248    4249    1314    2885
CTETRA     13236       1    1325    1326    1327    1088
CTETRA     13237       1    3591    3667    3666     519
CTETRA     13238       1    3342    3832    3343     201
CTETRA     13239       1    2849    3010    2850     672
CTETRA     13240       1    2768    2778    2777    1103
CTETRA     13241       1    2643    2652    2649    1124
CTETRA     13242       1    2850    3098    1043    1044
CTETRA     13243       1    1262    1263    1124     568
CTETRA     13244       1     875     672     924    1040
CTETRA     13245       1    3713    1275    1263    2651
CTETRA     13246       1    1273    2652    2644    1124
CTETRA     13247       1    1273    1275    2652    1124
CTETRA     13248       1    3715    2644    1273    2652
CTETRA     13249       1    2758    2778    2768    1103
CTETRA     13250       1    1103    1102    1144    1150
CTETRA     13251       1    3730    3731    1225    2709
CTETRA     13252       1    2709    2710    2718    1010
CTETRA     13253       1    3097    3101    3099    1144
CTETRA     13254       1    4251    1323    2876    2899
CTETRA     13255       1    1966    2746     624     893
CTETRA     13256       1    2734    2747    2745     616
CTETRA     13257       1    1984    1985    2734     999
CTETRA     13258       1     362     247    1026     364
CTETRA     13259       1    3266    3290    3267     199
CTETRA     13260       1    1982    1983    1985     615
CTETRA     13261       1    3930    1984    2734    2736
CTETRA     13262       1    1749    1750     913     837
CTETRA     13263       1      89      88      95      86
CTETRA     13264       1    2743    2744    2746     893
CTETRA     13265       1    2870     832     343     342
CTETRA     13266       1    2744    2745    2747     624
CTETRA     13267       1    3646      26     205     459
CTETRA     13268       1    3561    3641    1650    1028
CTETRA     13269       1    3561    1650    1652    1028
CTETRA     13270       1    2850    3098    3099    1043
CTETRA     13271       1    2331    2778     680     676
CTETRA     13272       1    3955    3956    2065    2579
CTETRA     13273       1    1188    2754    2780     961
CTETRA     13274       1    1188    2780    1190     961
CTETRA     13275       1    2994    3002    2995    1141
CTETRA     13276       1     429     493     887     535
CTETRA     13277       1    1940    1941     774     773
CTETRA     13278       1    2796    2806     772     949
CTETRA     13279       1    1203    2814    1211      34
CTETRA     13280       1    3004    3015    3013    1064
CTETRA     13281       1    1204     621    1205      39
CTETRA     13282       1    3738    3739    1210    2813
CTETRA     13283       1    1064     488     486     487
CTETRA     13284       1    2779     961     963     962
CTETRA     13285       1    2044    2053    2592     233
CTETRA     13286       1    2068    2070    2069     884
CTETRA     13287       1    2068    2069    2074     884
CTETRA     13288       1    2073    2074    2871    1006
CTETRA     13289       1    4124    2827    2828     549
CTETRA     13290       1    2617     265     233    1071
CTETRA     13291       1    1189    1193    1191     485
CTETRA     13292       1    2752    2766    2779     961
CTETRA     13293       1    3011    3012    3018     875
CTETRA     13294       1    3992    2055    2890    2894
CTETRA     13295       1    4267    4268    1632      70
CTETRA     13296       1    1635     367     591     904
CTETRA     13297       1    3421    1158    1156     116
CTETRA     13298       1     398     386     556     387
CTETRA     13299       1    2631    2642    2632     926
CTETRA     13300       1     399     965     915     907
CTETRA     13301       1     114     116     115     907
CTETRA     13302       1    4007    2029    2035    1054
CTETRA     13303       1    2596    2600    2603     884
CTETRA     13304       1    1158     399     909     965
CTETRA     13305       1    2029    2030    2035    1054
CTETRA     13306       1    3984    3351    1601    1634
CTETRA     13307       1    2035    2036    2041    1117
CTETRA     13308       1    4250    4251    1320    2876
CTETRA     13309       1    4257    1605     142     151
CTETRA     13310       1    1745      82     356      77
CTETRA     13311       1    1747    1763    1762      83
CTETRA     13312       1     935     936     508     569
CTETRA     13313       1    4277    1616    3607     446
CTETRA     13314       1    4039    1947    2986    2987
CTETRA     13315       1    1780     648     417     636
CTETRA     13316       1    2810    1130     952    1146
CTETRA     13317       1    2978    2984    2983     950
CTETRA     13318       1    1171     511     775      62
CTETRA     13319       1    4276    1616    1618     239
CTETRA     13320       1    1934    2971    3000     776
CTETRA     13321       1    3978    3362    3361      61
CTETRA     13322       1     519     524    1034     523
CTETRA     13323       1    1740     158     414     159
CTETRA     13324       1    2453    2461    2459     145
CTETRA     13325       1    2452    2463    2461     975
CTETRA     13326       1     166     176       6     162
CTETRA     13327       1    3283    3284    3288     219
CTETRA     13328       1     421     119     224     285
CTETRA     13329       1    4046    2846    1933    2999
CTETRA     13330       1    1726    1741     158     416
CTETRA     13331       1     477     182      10     176
CTETRA     13332       1     163     183     402     162
CTETRA     13333       1    2971    2988    2972     774
CTETRA     13334       1    2973    2995     795     883
CTETRA     13335       1    1741    1742     414     416
CTETRA     13336       1    4043    1934    2971    3000
CTETRA     13337       1    1672    1678    1673     476
CTETRA     13338       1    1866    1061    1881    1022
CTETRA     13339       1    1673    1677     293     476
CTETRA     13340       1    2976    3008    2979     620
CTETRA     13341       1    1676     543     292     293
CTETRA     13342       1    4205    2965    1206    2976
CTETRA     13343       1    1205    1209    1207     621
CTETRA     13344       1    1186     620     505     958
CTETRA     13345       1    2788    2801    2799     505
CTETRA     13346       1     981     522      21     635
CTETRA     13347       1    2313    2316    2314     861
CTETRA     13348       1    2453    2454    2492     123
CTETRA     13349       1      58    1002     634     635
CTETRA     13350       1    4204    2976    1187    3008
CTETRA     13351       1    3469     522    2300     227
CTETRA     13352       1    2461     145     218     464
CTETRA     13353       1    1911      38     171     141
CTETRA     13354       1    1061    1002     441     295
CTETRA     13355       1    1867    1882    1061    1002
CTETRA     13356       1    3983    1634    1635     367
CTETRA     13357       1    1973     990    1981     998
CTETRA     13358       1    1923    1973    1972     345
CTETRA     13359       1    1191    1196    1202     487
CTETRA     13360       1    3034    3035    3037     336
CTETRA     13361       1    2731    2735    2738     333
CTETRA     13362       1    3036    1018    1097     336
CTETRA     13363       1    2766    1041     963     877
CTETRA     13364       1    1978    1979    1982     990
CTETRA     13365       1    4196    4197    1179    3018
CTETRA     13366       1    1974    3047     990    1013
CTETRA     13367       1     963    1041     875     877
CTETRA     13368       1    1001    1000    1013     998
CTETRA     13369       1     875    1041     673     877
CTETRA     13370       1    3053    3067     211     210
CTETRA     13371       1    3021    3044    3038     614
CTETRA     13372       1    1073     769     335     770
CTETRA     13373       1    3027    3028    3034     769
CTETRA     13374       1    2034    1084    2845     879
CTETRA     13375       1    4022    1974    1922    3047
CTETRA     13376       1    2079    2093    2491     234
CTETRA     13377       1    1974    3045    1978     990
CTETRA     13378       1    2572    2674    2676     345
CTETRA     13379       1    3988    2034    2025    2845
CTETRA     13380       1    3038    3043    3042    1000
CTETRA     13381       1    2732     334    1001     501
CTETRA     13382       1    1973    1974     990    1013
CTETRA     13383       1    3454     496     497     498
CTETRA     13384       1    4021    4022    1922    3047
CTETRA     13385       1    1073     333     769    1097
CTETRA     13386       1    2682     935     508     569
CTETRA     13387       1    1981    1982     999     990
CTETRA     13388       1    3466    2292    2289     390
CTETRA     13389       1    2849    2850    3099    1043
CTETRA     13390       1    2767    2768    2777    1041
CTETRA     13391       1    3652    3653    2289     426
CTETRA     13392       1    2847    2848    3102     194
CTETRA     13393       1    2767    2777    2773    1041
CTETRA     13394       1    2993    3001    3003    1045
CTETRA     13395       1    2848     995    3102     194
CTETRA     13396       1     191     994     996    1045
CTETRA     13397       1    2849    3099    3100    1102
CTETRA     13398       1    1869    1884      54      56
CTETRA     13399       1    3466    2289    3467     390
CTETRA     13400       1     429     533     824     700
CTETRA     13401       1    4121     307     403     429
CTETRA     13402       1     791     726     792    1004
CTETRA     13403       1    2024    2025    2034    1084
CTETRA     13404       1     370     931     987     828
CTETRA     13405       1    2513     685    2514     687
CTETRA     13406       1    1527     544     381     546
CTETRA     13407       1    2176    2179    2184     803
CTETRA     13408       1     374     546    1112    1074
CTETRA     13409       1    3376    3552    3377     545
CTETRA     13410       1    3376    1654    3552     545
CTETRA     13411       1    4060    3121    2225    3122
CTETRA     13412       1    1658     788     260     380
CTETRA     13413       1    3222    3223    3229     700
CTETRA     13414       1    2306    2307     432     433
CTETRA     13415       1    2218    2224     484     988
CTETRA     13416       1    2512     689    1148     692
CTETRA     13417       1    2307     279     274     432
CTETRA     13418       1    4063    2228    2227    3088
CTETRA     13419       1    2033    2034    2040     879
CTETRA     13420       1    2509    2529    2528     691
CTETRA     13421       1    2225    3121    2226     612
CTETRA     13422       1    3132    3135    3134     651
CTETRA     13423       1    3122    3123    3135     988
CTETRA     13424       1    2305    2509    2306    1007
CTETRA     13425       1    2306     433     432     691
CTETRA     13426       1    1397    1398    1400    1007
CTETRA     13427       1    2336     900    2455     261
CTETRA     13428       1    3152    3167    3168     268
CTETRA     13429       1    1396    1399    3217     847
CTETRA     13430       1    2163    3152    2175     133
CTETRA     13431       1    4180    1458    3191    3196
CTETRA     13432       1    3220     307    3221     533
CTETRA     13433       1     560     404     942     401
CTETRA     13434       1    1452    1453    1458     299
CTETRA     13435       1    4182    4183    1457    3195
CTETRA     13436       1    3132    3133    1140     478
CTETRA     13437       1     168     932     960     408
CTETRA     13438       1    3092    3194    3193     299
CTETRA     13439       1    1452    1455    1453     299
CTETRA     13440       1    3234    3235     971     424
CTETRA     13441       1    3604    2265      57     839
CTETRA     13442       1    2273     732     407     813
CTETRA     13443       1    4287     813     797    1077
CTETRA     13444       1    3970    3334    3333     400
CTETRA     13445       1    1609     202     447     400
CTETRA     13446       1     732     813    1039     183
CTETRA     13447       1    4106    3216    2122    3262
CTETRA     13448       1    2515    1148     685     692
CTETRA     13449       1    4014    2005    2955     376
CTETRA     13450       1    2131    3231    3232     316
CTETRA     13451       1    1607     400     447     401
CTETRA     13452       1    2460    2461    2462     464
CTETRA     13453       1    1059     810     276     919
CTETRA     13454       1    2451    2478    1052     465
CTETRA     13455       1    4280    3601    3600      52
CTETRA     13456       1    4281    3600    3599     407
CTETRA     13457       1    3333    1154    1176     938
CTETRA     13458       1     199     465     198     975
CTETRA     13459       1    1915     126    1594     232
CTETRA     13460       1    1840     439    1855     440
CTETRA     13461       1    2090    3291    3292     197
CTETRA     13462       1    2280      21     981     522
CTETRA     13463       1    1883    1884      60      13
CTETRA     13464       1    4087    2090    3291    3292
CTETRA     13465       1    3656    2291      18      21
CTETRA     13466       1    3469     522     227     225
CTETRA     13467       1     392     555     630      45
CTETRA     13468       1    3467    2290    3468    1027
CTETRA     13469       1    3468    3469    1581     522
CTETRA     13470       1    3382    1662    3383     368
CTETRA     13471       1    1891     792     820     911
CTETRA     13472       1    4260    1604    3348     121
CTETRA     13473       1    3343    3832    3831     201
CTETRA     13474       1    3830     127     786     550
CTETRA     13475       1    4266    1603    3584      68
CTETRA     13476       1    3383    1662    3548     986
CTETRA     13477       1    3511    3512    1801    1567
CTETRA     13478       1      99     101     201     102
CTETRA     13479       1    1831    1847    1846    1075
CTETRA     13480       1    3830     786    3831     550
CTETRA     13481       1    3344     786      99     201
CTETRA     13482       1    1082     124    1094     237
CTETRA     13483       1    3230    3232    3231     316
CTETRA     13484       1    3987    2025    2027    2844
CTETRA     13485       1    3373    1176    1175     138
CTETRA     13486       1    2002    2003    2005     376
CTETRA     13487       1    4281    3598    1596     407
CTETRA     13488       1    3611    3612     254     649
CTETRA     13489       1    3673     942    3674    1077
CTETRA     13490       1    3498    3499    1794    1550
CTETRA     13491       1    1752    1753    1767     275
CTETRA     13492       1     168     208     932     165
CTETRA     13493       1     467     256     257     161
CTETRA     13494       1      89      95     894     640
CTETRA     13495       1    3334     938     400     960
CTETRA     13496       1    2825    2826    3223     329
CTETRA     13497       1    1596     175     166     402
CTETRA     13498       1    1987    2964    1997    1047
CTETRA     13499       1    2253     954    2269     706
CTETRA     13500       1    3448    1648    1646      22
CTETRA     13501       1    4269    3619    4270    1630
CTETRA     13502       1    4269    1630    1631     709
CTETRA     13503       1    4269    3621    3620     709
CTETRA     13504       1    3393    1673     925     910
CTETRA     13505       1    1837     722    1852     154
CTETRA     13506       1    4269    3620    3619     709
CTETRA     13507       1    2983    2984    2986     950
CTETRA     13508       1    1868    1869      54    1025
CTETRA     13509       1      54    1025     440      71
CTETRA     13510       1    1663    1665    1664     369
CTETRA     13511       1    1853    1025    1868      58
CTETRA     13512       1    3631    3632    2294     112
CTETRA     13513       1    3625     889    2303    1023
CTETRA     13514       1    3411     575    1640     598
CTETRA     13515       1     581     453     580     582
CTETRA     13516       1     392     394     557      44
CTETRA     13517       1    3414    1523    1522     530
CTETRA     13518       1    4084    2158    2164    3285
CTETRA     13519       1    1902     647    1137    1080
CTETRA     13520       1    1871    1872    1887     891
CTETRA     13521       1    2711    2715    2712     196
CTETRA     13522       1    4278    3605    3604     839
CTETRA     13523       1     392      44     557      50
CTETRA     13524       1    1827    1842     941     916
CTETRA     13525       1    3370    3371    1177     703
CTETRA     13526       1    1607    1609    1608     447
CTETRA     13527       1    1873     654     581     582
CTETRA     13528       1    1857    1872     825     581
CTETRA     13529       1    1857     825     287     581
CTETRA     13530       1    3414    1651    3554     457
CTETRA     13531       1     581     574     582     531
CTETRA     13532       1    2824     307     429     533
CTETRA     13533       1     307     429     533     313
CTETRA     13534       1    3342     103    3832     201
CTETRA     13535       1    3342    3343    1165     101
CTETRA     13536       1    4119     308     309     310
CTETRA     13537       1    1696    1712    1711     256
CTETRA     13538       1    2824    3221     307     533
CTETRA     13539       1    3654     880    3655      18
CTETRA     13540       1    2505    2506    2519     534
CTETRA     13541       1    3417    1166    1165     257
CTETRA     13542       1     556     386      74     149
CTETRA     13543       1    1390     419    1391     846
CTETRA     13544       1     845     313     315     306
CTETRA     13545       1    4264    1598    3596     704
CTETRA     13546       1    2278     214     216     833
CTETRA     13547       1    3342    3834     103     860
CTETRA     13548       1    2027     850     849     852
CTETRA     13549       1     490      39      34     622
CTETRA     13550       1    2024     861     322    1106
CTETRA     13551       1    3665     284    3666     859
CTETRA     13552       1    4261    4262       5     167
CTETRA     13553       1    3717    3718    1264    2646
CTETRA     13554       1    2625     337     338    1097
CTETRA     13555       1    3666     284     519    1034
CTETRA     13556       1    1315    2606    2610     761
CTETRA     13557       1     551    1088    1015     765
CTETRA     13558       1    2307     532     279     824
CTETRA     13559       1    4037    1945    1939    2985
CTETRA     13560       1     551    1015    1088     573
CTETRA     13561       1    2568    2648     337     978
CTETRA     13562       1    3718    1258    1264    2645
CTETRA     13563       1    1264     854    1270     855
CTETRA     13564       1    1939    2991    2985    1145
CTETRA     13565       1    2902    2909    1107     266
CTETRA     13566       1    1553     705     706     707
CTETRA     13567       1    2951    2954     507     508
CTETRA     13568       1    3436    1553     705     706
CTETRA     13569       1     913      89      87      88
CTETRA     13570       1    1749     913      87     837
CTETRA     13571       1    3424     251     246     243
CTETRA     13572       1      90      92     583      85
CTETRA     13573       1    1258    1265    1264     978
CTETRA     13574       1    3513    3514    1803    1566
CTETRA     13575       1    1289    1290    1293     607
CTETRA     13576       1    1762     997      83     576
CTETRA     13577       1    3980    3357    1629     886
CTETRA     13578       1    2261     254     895     894
CTETRA     13579       1     906     115     591     907
CTETRA     13580       1    1764     913    1765      89
CTETRA     13581       1    4072    4073    2214    3183
CTETRA     13582       1    1719      36    1735    1026
CTETRA     13583       1    1735     250    1750     837
CTETRA     13584       1    3692    1318    1321    2621
CTETRA     13585       1    1318    1322    1321    1011
CTETRA     13586       1    1946    1947    1952     950
CTETRA     13587       1    2242    2245    2244     371
CTETRA     13588       1    1011     765     764     297
CTETRA     13589       1     611     818     809     612
CTETRA     13590       1    2605    2606    2624     761
CTETRA     13591       1    1312    1315    2610     761
CTETRA     13592       1    2223    2377     484     371
CTETRA     13593       1    3698    1300    1303    2588
CTETRA     13594       1    2656    2657     712     878
CTETRA     13595       1    2605    2607    2608     761
CTETRA     13596       1    1143    1054    1117     713
CTETRA     13597       1    1163    1082    1164    1094
CTETRA     13598       1     467     256     110     259
CTETRA     13599       1    2232    3174     817     758
CTETRA     13600       1    3788    3789    1345    2467
CTETRA     13601       1     521     296     104     523
CTETRA     13602       1    3342    3343     101     201
CTETRA     13603       1    3141    3183    3185     867
CTETRA     13604       1    3569    3628    3627     982
CTETRA     13605       1     859     849       9     852
CTETRA     13606       1     347     322     348     296
CTETRA     13607       1    3666     859     284    1034
CTETRA     13608       1    1346    3308    3310     784
CTETRA     13609       1    2842    2843     859    1084
CTETRA     13610       1    2474    2475    2480    1066
CTETRA     13611       1    2463    2465    2464     698
CTETRA     13612       1    2451     698    2463     975
CTETRA     13613       1    1447    1090    1448     955
CTETRA     13614       1    1350    1353    1352     783
CTETRA     13615       1    1802    1817    1816     828
CTETRA     13616       1    3792    1357    2449    2477
CTETRA     13617       1    1344    1347    1067     943
CTETRA     13618       1    1332    1441    1030     698
CTETRA     13619       1     811     199     198     234
CTETRA     13620       1    3300     465     784     944
CTETRA     13621       1    3239    3240    3242    1009
CTETRA     13622       1    3764    3765    1454    2352
CTETRA     13623       1    3182    3185     867     817
CTETRA     13624       1    2451    2463    2452     975
CTETRA     13625       1     230     808     811     944
CTETRA     13626       1    1333    1343     782     698
CTETRA     13627       1    1345    2468    1052     698
CTETRA     13628       1    2204    2429    2210     406
CTETRA     13629       1    2209    2215     410     327
CTETRA     13630       1    2152    2196    3143     802
CTETRA     13631       1    3267    3268    3301     975
CTETRA     13632       1    1332    2466    1345     698
CTETRA     13633       1    3632    3633     112     113
CTETRA     13634       1    1454    1460    1459     300
CTETRA     13635       1    3763    3764    1456    2349
CTETRA     13636       1    1459     300    1465     301
CTETRA     13637       1    2351     300    2360     538
CTETRA     13638       1    2152    3143    3154     802
CTETRA     13639       1    1661     788     111     113
CTETRA     13640       1    4075    2196    2202    3143
CTETRA     13641       1    3765    2351    1460    2352
CTETRA     13642       1    1659    1661    1660     788
CTETRA     13643       1    4038    1946    2985    2986
CTETRA     13644       1    3766    3767    1466    2351
CTETRA     13645       1    3566    1663    1661     113
CTETRA     13646       1    4200    3005    1192    3015
CTETRA     13647       1     393     630     315      45
CTETRA     13648       1    3406     392    3407     555
CTETRA     13649       1    1826    1827     888    1065
CTETRA     13650       1    4179    1464    1470    3204
CTETRA     13651       1    1464    1465    1470     301
CTETRA     13652       1    1510     630     914     437
CTETRA     13653       1    3405     844     393     437
CTETRA     13654       1    3084    3085    3279    1119
CTETRA     13655       1    1187    1195    3007     958
CTETRA     13656       1    3086    3163    3161     869
CTETRA     13657       1    3404     844    3405     437
CTETRA     13658       1    3404    1509     628     437
CTETRA     13659       1     583     576     705    1139
CTETRA     13660       1    2261     895    2262     894
CTETRA     13661       1    2436     661     976     663
CTETRA     13662       1    4273    1622    1624     895
CTETRA     13663       1    4200    1194    1192    3005
CTETRA     13664       1    1761     997    1776     957
CTETRA     13665       1    2256    2262      97      95
CTETRA     13666       1      89     894      95      88
CTETRA     13667       1      87      93      88      86
CTETRA     13668       1    4272    1624    1626      97
CTETRA     13669       1    4272    3616    3615      96
CTETRA     13670       1    3445    3817    3827     352
CTETRA     13671       1    3458    3459    1565     281
CTETRA     13672       1    1809    1565    1579     588
CTETRA     13673       1    1818     178     826     498
CTETRA     13674       1    3459    3460    1579     593
CTETRA     13675       1    1814    1830     547     374
CTETRA     13676       1    3480    1541    1680    1545
CTETRA     13677       1    1824    1825    1840     436
CTETRA     13678       1    1808    1809    1824     588
CTETRA     13679       1    1509     629     628     914
CTETRA     13680       1    3486    1537    1686    1539
CTETRA     13681       1    1699     114     747     744
CTETRA     13682       1    1686    1702     115     245
CTETRA     13683       1    1683    1684    1699     744
CTETRA     13684       1    1683    1546    1533     743
CTETRA     13685       1    3483    3484    1684    1533
CTETRA     13686       1    1684    1700    1699     744
CTETRA     13687       1    1512    1008     627     629
CTETRA     13688       1    2757    2759    2758    1144
CTETRA     13689       1     279      63     310     306
CTETRA     13690       1    3427    1532    1535     597
CTETRA     13691       1     981     442     227     635
CTETRA     13692       1    3972    1608    3373      55
CTETRA     13693       1    2291      18      21     226
CTETRA     13694       1     896     170     136     173
CTETRA     13695       1      18      21     226      12
CTETRA     13696       1     709     578     585     710
CTETRA     13697       1     458     598     580     531
CTETRA     13698       1    1856     287    1857     825
CTETRA     13699       1    2256      96      90      95
CTETRA     13700       1    2256      90    2258    1139
CTETRA     13701       1      83     576     997     578
CTETRA     13702       1     887     493     495     535
CTETRA     13703       1    1856    1871     287     825
CTETRA     13704       1    1782    1783    1797     919
CTETRA     13705       1    3646    3647    2288      26
CTETRA     13706       1    1872    1888    1887     654
CTETRA     13707       1    3345    3829    3346     127
CTETRA     13708       1     964      82      69     907
CTETRA     13709       1    2512    2525     689     692
CTETRA     13710       1    2503    2517    2518     686
CTETRA     13711       1    3500    1553    1792    1556
CTETRA     13712       1     930     370     931     985
CTETRA     13713       1    3238     848     902     642
CTETRA     13714       1    2577    2578    2666     831
CTETRA     13715       1    2879     270    1049     346
CTETRA     13716       1    3434    3435    1550      95
CTETRA     13717       1    3497    3498    1795    1552
CTETRA     13718       1    1687    1703    1702     243
CTETRA     13719       1    3423    1169    3424     251
CTETRA     13720       1    4029    1964    1969    3053
CTETRA     13721       1    3488    3489    1689    1534
CTETRA     13722       1    3488    1689    1688    1534
CTETRA     13723       1    2575     822    2637     223
CTETRA     13724       1    2074    2872    2871    1006
CTETRA     13725       1     581     453     891      30
CTETRA     13726       1    2058    2669    2064    1055
CTETRA     13727       1    1521     545    1526     525
CTETRA     13728       1    3555    1637    1651     458
CTETRA     13729       1    2580    2581    2599     619
CTETRA     13730       1    2661     349    2666     339
CTETRA     13731       1    3414    1651     457     458
CTETRA     13732       1    2940    2953    2952     507
CTETRA     13733       1    1261    1269    2940     856
CTETRA     13734       1    1262    1124    1272     856
CTETRA     13735       1    2627     855    1124     508
CTETRA     13736       1    1893    1894    1909     382
CTETRA     13737       1    3409    3410    3580    4296
CTETRA     13738       1    3388    3389    1515     492
CTETRA     13739       1    1664    1665    1666     748
CTETRA     13740       1    1124     856     568     569
CTETRA     13741       1    3509    3510    1799    1575
CTETRA     13742       1    2627    2628    2681     508
CTETRA     13743       1    3465    2288    2281     405
CTETRA     13744       1    1269    1272    1271     507
CTETRA     13745       1    1272     856    1124     507
CTETRA     13746       1    2289    2292     778     390
CTETRA     13747       1    1887    1902     389     647
CTETRA     13748       1    3642    3643    2284    1028
CTETRA     13749       1    1271    1272    1273     855
CTETRA     13750       1    2954     856     507     508
CTETRA     13751       1    1521    1523     263     525
CTETRA     13752       1    1654     545     263     529
CTETRA     13753       1    1651    1653    1652     452
CTETRA     13754       1    1649    1652    1650     934
CTETRA     13755       1    2244    2384    2377     371
CTETRA     13756       1    3100    3103    3102     995
CTETRA     13757       1    3685    1858    1843     574
CTETRA     13758       1    2375     780     484     480
CTETRA     13759       1    2240    2241    2252     809
CTETRA     13760       1    3466    3467    1595     126
CTETRA     13761       1    1901     389    1902    1080
CTETRA     13762       1    3514    1804    1803    1566
CTETRA     13763       1    3525    1916    1917    1589
CTETRA     13764       1    2240    2243    2241     809
CTETRA     13765       1    4295    3524    1918    1592
CTETRA     13766       1    1902    1903    1918    1137
CTETRA     13767       1    2227    3120    3088     787
CTETRA     13768       1    1901    1902    1917    1080
CTETRA     13769       1    2226    2227    2243     611
CTETRA     13770       1    2226    3121    3120     611
CTETRA     13771       1    2226    3121     611     612
CTETRA     13772       1    3514    3515    1804    1571
CTETRA     13773       1    3454    1571    1566     498
CTETRA     13774       1    1880     129    1022      38
CTETRA     13775       1    1804    1819    1818     498
CTETRA     13776       1    3454     497    1571     498
CTETRA     13777       1    3177    3179    3178     757
CTETRA     13778       1    2975     620    3008     958
CTETRA     13779       1    1186    1206    1208     620
CTETRA     13780       1    1950    2805     948     949
CTETRA     13781       1    2974     506     958     883
CTETRA     13782       1    2965    2966    3055     621
CTETRA     13783       1    1941    1949    1948     951
CTETRA     13784       1    1941    1942    1949     949
CTETRA     13785       1    1185    1186    1208     771
CTETRA     13786       1    2816    2820    2819     771
CTETRA     13787       1    2966    2967     621     623
CTETRA     13788       1    2974    3006    2995     958
CTETRA     13789       1    1187    3007    3008     958
CTETRA     13790       1    1972    1973    1986     345
CTETRA     13791       1    1199    2788     489     505
CTETRA     13792       1    2817     952     506     623
CTETRA     13793       1    2799     771    2817     506
CTETRA     13794       1    1923     345    1012    1013
CTETRA     13795       1    3933    3934    1972    2676
CTETRA     13796       1    3524    1917    1918    1593
CTETRA     13797       1    1186    1198    1187     958
CTETRA     13798       1    3935    1994    1924     697
CTETRA     13799       1    1186    1200    1198     505
CTETRA     13800       1    1985    2734     999     616
CTETRA     13801       1     625     616     614     501
CTETRA     13802       1     425     548     429      46
CTETRA     13803       1    3932    3933    1986    2573
CTETRA     13804       1    3826    2821    2822     350
CTETRA     13805       1     495     330     494     535
CTETRA     13806       1    4029    4030    1964    3062
CTETRA     13807       1    3039    3041    3040    1012
CTETRA     13808       1      28      29     980      25
CTETRA     13809       1    1046     533     824     313
CTETRA     13810       1    3462    1506    1525     966
CTETRA     13811       1    2914     605    2918     603
CTETRA     13812       1     873     269      29     857
CTETRA     13813       1    1008     629     281      15
CTETRA     13814       1    3681    1918    1903    1042
CTETRA     13815       1     888     436     914     438
CTETRA     13816       1    2923    2924    2928     669
CTETRA     13817       1    1598    1599     166     176
CTETRA     13818       1    3595     704     477     850
CTETRA     13819       1    2859    2928    2926     343
CTETRA     13820       1     324       5     167      98
CTETRA     13821       1    1107     596     861     862
CTETRA     13822       1    4006    4007    2035    2936
CTETRA     13823       1    2507    2526    2514    1048
CTETRA     13824       1    2142     701     702     329
CTETRA     13825       1    3821    2505     394     887
CTETRA     13826       1    3405     844    3822     393
CTETRA     13827       1    4121    2824     307     429
CTETRA     13828       1    4004    4005    2047    2934
CTETRA     13829       1    3822     844    3823     532
CTETRA     13830       1     279     310     313     306
CTETRA     13831       1    3957    2596    2066    2598
CTETRA     13832       1    3411    3556    3412    1640
CTETRA     13833       1    2853    3036    3040     694
CTETRA     13834       1    3954    3955    2064    2669
CTETRA     13835       1    1990     697    1991    1012
CTETRA     13836       1    2674    2675    2677     696
CTETRA     13837       1    1991    1994    1993     696
CTETRA     13838       1    1993    2677    2678     696
CTETRA     13839       1    2106    3254    2108     462
CTETRA     13840       1    1991    1993    1992     696
CTETRA     13841       1    1987    1997    1992    1047
CTETRA     13842       1    2533    2540     967     717
CTETRA     13843       1    4018    2964    2852    1047
CTETRA     13844       1    4018    2852    1996    1047
CTETRA     13845       1    4104    4105    2117    3262
CTETRA     13846       1     794     643     463     644
CTETRA     13847       1    2104    2105    2116     793
CTETRA     13848       1    1852     153     154     923
CTETRA     13849       1    3446    1406     352     277
CTETRA     13850       1    1403    1405    1406     277
CTETRA     13851       1    4102    2105    2108    3255
CTETRA     13852       1    3655    4118    4117     880
CTETRA     13853       1    3403     273     723     627
CTETRA     13854       1    2828     330    2829     329
CTETRA     13855       1    3824     274    2307     279
CTETRA     13856       1    3403    3824     844     723
CTETRA     13857       1    2824    2825    3222     700
CTETRA     13858       1     905    1148     558     316
CTETRA     13859       1    1803    1818     826     498
CTETRA     13860       1    1901    1916     405    1080
CTETRA     13861       1    1871     825    1872     891
CTETRA     13862       1    1803    1804    1818     498
CTETRA     13863       1     931     496     987     826
CTETRA     13864       1     827     496     830     444
CTETRA     13865       1    3454    1515    1514     497
CTETRA     13866       1     330     494     535     549
CTETRA     13867       1     824     700     533     687
CTETRA     13868       1    3821     394     393     887
CTETRA     13869       1    3872    3873    2169    2455
CTETRA     13870       1    3819     394     495     557
CTETRA     13871       1    1406     353     278     277
CTETRA     13872       1    3819     392    3820     394
CTETRA     13873       1    3820     393    3821     394
CTETRA     13874       1    2318     887    2516    1019
CTETRA     13875       1    2914     564     604     561
CTETRA     13876       1    2035    1117    2936    1054
CTETRA     13877       1     926     564     563     604
CTETRA     13878       1    3874    2155    2161    2337
CTETRA     13879       1    2167     261    2170     146
CTETRA     13880       1    2336    2455    2458     261
CTETRA     13881       1    3082    3083    3286     169
CTETRA     13882       1    2174    3082    3287     169
CTETRA     13883       1    2760    2763    2762     280
CTETRA     13884       1    1244    1283    2640     602
CTETRA     13885       1    2013    2016    2015     933
CTETRA     13886       1    2924     927    2927     669
CTETRA     13887       1    3094     650    3124     652
CTETRA     13888       1    2918    2925    2924     608
CTETRA     13889       1    2574    2590    2575     223
CTETRA     13890       1    2037    2043    2042     897
CTETRA     13891       1    2866    2872    2867     884
CTETRA     13892       1    3141    3142    3183     867
CTETRA     13893       1    2277     833     216     396
CTETRA     13894       1    4071    2220    2233    3182
CTETRA     13895       1    3441     741     833     835
CTETRA     13896       1    1756     499     414     418
CTETRA     13897       1    3591     284    3592     740
CTETRA     13898       1    2214    2215    2221     867
CTETRA     13899       1    4073    3142    2214    3183
CTETRA     13900       1    2238    2239    2402    1129
CTETRA     13901       1     754     755    1133     758
CTETRA     13902       1     372     537     542     373
CTETRA     13903       1    1817     931     370     828
CTETRA     13904       1    3381    1660    3549    1086
CTETRA     13905       1    1816    1817     370     828
CTETRA     13906       1    3451    1520    1531     381
CTETRA     13907       1    1618    1619    1620     241
CTETRA     13908       1     860     296     108       2
CTETRA     13909       1    3339    3837    3836      98
CTETRA     13910       1    3335    3336     168     960
CTETRA     13911       1     414       8     499     182
CTETRA     13912       1    1783     276     810     919
CTETRA     13913       1    4277    3607    3606     446
CTETRA     13914       1     240     241     250     510
CTETRA     13915       1    1758    1759     556     386
CTETRA     13916       1    2342    2356    2355    1133
CTETRA     13917       1    3174    3175    3184     758
CTETRA     13918       1    2341    2357    2356    1135
CTETRA     13919       1    2230     755     757     758
CTETRA     13920       1    2340    2357    2341    1070
CTETRA     13921       1    1725     159    1740     163
CTETRA     13922       1    4070    2233    3181    3182
CTETRA     13923       1    1418     679    2775     676
CTETRA     13924       1    2775    2776    2778     679
CTETRA     13925       1    1425    1430    3116     675
CTETRA     13926       1     946    1037     872     500
CTETRA     13927       1    3784    3785    1449    2426
CTETRA     13928       1    3783    3784    1451    2427
CTETRA     13929       1     860     296     347     104
CTETRA     13930       1    2142    1019     701     329
CTETRA     13931       1    2512    2515    2513     692
CTETRA     13932       1    2068    2074    2072     884
CTETRA     13933       1    2866    2867    2891     884
CTETRA     13934       1    3912    1936    2795    2806
CTETRA     13935       1    1379     422     969     423
CTETRA     13936       1    2510    2527    2529     842
CTETRA     13937       1    2512    2522    2525     692
CTETRA     13938       1    3215    3233    3216     316
CTETRA     13939       1    1440    1446    1089    1030
CTETRA     13940       1    2439    2442    2441     953
CTETRA     13941       1    2333    2425    2442    1089
CTETRA     13942       1    2333    2334    2462    1121
CTETRA     13943       1    3269    3281    3274    1031
CTETRA     13944       1    3215    3216    3264     566
CTETRA     13945       1    3214    3229    3230     905
CTETRA     13946       1    1089    1069    1090     955
CTETRA     13947       1    3274    3281    1090    1031
CTETRA     13948       1    2460     464    2462    1123
CTETRA     13949       1    1445    1448    1090    1069
CTETRA     13950       1    2334    2442    2439    1121
CTETRA     13951       1    2333    2442    2334    1121
CTETRA     13952       1    2474    2476    2477     943
CTETRA     13953       1    1918    1592    1137    1042
CTETRA     13954       1    2525     689     848     642
CTETRA     13955       1    3213    1009     892     848
CTETRA     13956       1     581     580     916     531
CTETRA     13957       1    3791    3792    1357    2449
CTETRA     13958       1    1886    1901     388     389
CTETRA     13959       1    3578    1641    1642      24
CTETRA     13960       1    1871    1886     825     891
CTETRA     13961       1    1357    2449    2477     943
CTETRA     13962       1    2471    2478    2472     944
CTETRA     13963       1    1446    1089    1030    1032
CTETRA     13964       1    3299    3301    3300     465
CTETRA     13965       1    3650    3651    2292     778
CTETRA     13966       1    3301     782     465     975
CTETRA     13967       1    1343    1345    1052     698
CTETRA     13968       1    2138    2141    2502     701
CTETRA     13969       1     493     700    1048     686
CTETRA     13970       1    3844    2138    2502     558
CTETRA     13971       1     426     390     778     391
CTETRA     13972       1    1825    1841     439     888
CTETRA     13973       1    2135    2136    2138     558
CTETRA     13974       1    2497    1148     689     351
CTETRA     13975       1    1824    1825     436     588
CTETRA     13976       1    1870    1886    1885     858
CTETRA     13977       1    2526    1048     824     687
CTETRA     13978       1     534     429     427     313
CTETRA     13979       1    3462     331    1576     579
CTETRA     13980       1    3213    3226     687     892
CTETRA     13981       1     534    1048     429     824
CTETRA     13982       1    1942    2806    2805     949
CTETRA     13983       1    3681    4295    1918    1592
CTETRA     13984       1    1755     499    1770     184
CTETRA     13985       1    1786    1562    1557     456
CTETRA     13986       1    1652     452    1653     451
CTETRA     13987       1    1827     888    1065     579
CTETRA     13988       1    3442    3443    1557    1060
CTETRA     13989       1     519     107     284     397
CTETRA     13990       1    4257    1605    4258     142
CTETRA     13991       1    1758    1774    1773     556
CTETRA     13992       1    3798    1342    2543    2544
CTETRA     13993       1    1759    1774     556      74
CTETRA     13994       1     556     835     418     224
CTETRA     13995       1     367     590     116     591
CTETRA     13996       1    1729    1730    1745      78
CTETRA     13997       1    1937    2706    2705     800
CTETRA     13998       1    3587    3672    3671     152
CTETRA     13999       1    2605    2608    2610     761
CTETRA     14000       1    1772     418     556     835
CTETRA     14001       1    1727     420    1742     416
CTETRA     14002       1     302     304     297     298
CTETRA     14003       1    2607    2609    2608     304
CTETRA     14004       1     100     120     119     102
CTETRA     14005       1      78     149     148      77
CTETRA     14006       1    3695    2608    1312    2610
CTETRA     14007       1    1309    1313    1312     761
CTETRA     14008       1    4259     221    1331     143
CTETRA     14009       1    4122    2828    2824     548
CTETRA     14010       1     127     550     135     221
CTETRA     14011       1    3669    3670    2830     631
CTETRA     14012       1    3588     214     554     216
CTETRA     14013       1    2830    2831    2903     882
CTETRA     14014       1    1327    2835    1056    1088
CTETRA     14015       1    1226    2702    2710     504
CTETRA     14016       1    1227    1228    1234     504
CTETRA     14017       1    3454    1566     496     498
CTETRA     14018       1    2632    2637    2633     606
CTETRA     14019       1    2739    2740    2742     502
CTETRA     14020       1    2632    2633    2658     927
CTETRA     14021       1    3022    3035     325     501
CTETRA     14022       1    1235    3080    1236     332
CTETRA     14023       1    1108     503     326     504
CTETRA     14024       1    1233     326    1235     332
CTETRA     14025       1    2767    2769    2768     674
CTETRA     14026       1    2917    2924    2923     668
CTETRA     14027       1    4240    2922    1290     607
CTETRA     14028       1    1245     563     604     602
CTETRA     14029       1    2660    2661    2667     339
CTETRA     14030       1    3594     477     282     850
CTETRA     14031       1    4261    1600    4262     167
CTETRA     14032       1    1118     897    1117    1116
CTETRA     14033       1    3950    3951    2043    2660
CTETRA     14034       1    2042    2043    2048     897
CTETRA     14035       1    1987    2963    2964     518
CTETRA     14036       1    1992    1993    1995     696
CTETRA     14037       1    1992     518    1047     696
CTETRA     14038       1     938     400     960     932
CTETRA     14039       1     740     396     397     286
CTETRA     14040       1    3935    1924    2676     697
CTETRA     14041       1    3937    1995    1993    2678
CTETRA     14042       1    1991    1012     697     696
CTETRA     14043       1    2628     508    1124     569
CTETRA     14044       1    4264    1598     704     176
CTETRA     14045       1    2009    2010    2012     935
CTETRA     14046       1    2010    2013    2012     933
CTETRA     14047       1    4263     176    4264     850
CTETRA     14048       1    2144    2145    2149    1019
CTETRA     14049       1    2149    2317    2504    1019
CTETRA     14050       1    2019    2022    2021     708
CTETRA     14051       1    1250    2942    2946     561
CTETRA     14052       1    2682    2687    2684     935
CTETRA     14053       1    2681    2682    2684     935
CTETRA     14054       1    2911    2937    2959     415
CTETRA     14055       1     287     439     888     438
CTETRA     14056       1    2148     495     330     494
CTETRA     14057       1    2142    2145    1019     329
CTETRA     14058       1    2825    2828    2829     329
CTETRA     14059       1    4122     425     548     429
CTETRA     14060       1     550     551     552     779
CTETRA     14061       1    3731    2708    1212    2709
CTETRA     14062       1    3923    2697    1963    2703
CTETRA     14063       1    3671    2836    2834     152
CTETRA     14064       1    3102    3103    3106     995
CTETRA     14065       1    3932    2573    1986    2736
CTETRA     14066       1    3418    3419    1546     468
CTETRA     14067       1    3419    1155    3420    1078
CTETRA     14068       1    1981    1984    1986     998
CTETRA     14069       1    1816    1832    1831     370
CTETRA     14070       1    1818    1833     931     178
CTETRA     14071       1    3930    3931    1984    2736
CTETRA     14072       1    1831    1832     930     370
CTETRA     14073       1    1666     748     481     985
CTETRA     14074       1    3377    1656     544     545
CTETRA     14075       1    2010    2688    2689     935
CTETRA     14076       1    3945    2013    2689    2690
CTETRA     14077       1    2554    2557    2560     993
CTETRA     14078       1    1371    1372    1376     972
CTETRA     14079       1    1364    1131     609     646
CTETRA     14080       1    1365    1367     646    1147
CTETRA     14081       1    1371    1376    1375     424
CTETRA     14082       1    3207    3324    3332     646
CTETRA     14083       1    1365     646    1142    1147
CTETRA     14084       1    3248    3256    3259     863
CTETRA     14085       1    3925    3926    1968    2748
CTETRA     14086       1    3427    1167    3428     515
CTETRA     14087       1    2744    2747    2746     624
CTETRA     14088       1    1701    1717    1716     115
CTETRA     14089       1    3902    3903    2191    2764
CTETRA     14090       1     244     251     243     363
CTETRA     14091       1    3359    3360    1168     584
CTETRA     14092       1    3434    2262      95     894
CTETRA     14093       1    1625      61     584     868
CTETRA     14094       1    3377    1527    1526     546
CTETRA     14095       1     655     451     449     454
CTETRA     14096       1    1657    1659    1658     725
CTETRA     14097       1    1845     547     372     542
CTETRA     14098       1    1005     726     791    1004
CTETRA     14099       1    2761    1109     803     804
CTETRA     14100       1    2848    2849    3100    1102
CTETRA     14101       1    3097    3099    3098     683
CTETRA     14102       1    3635    1659    1005     111
CTETRA     14103       1     946     683     680    1150
CTETRA     14104       1    3112    3115    3118     946
CTETRA     14105       1     412     819     383     413
CTETRA     14106       1    3112    3118     638     946
CTETRA     14107       1    1928    1934    3000     777
CTETRA     14108       1    1931     191     777     994
CTETRA     14109       1    3096     807    3101    1144
CTETRA     14110       1    3003     777     776    1141
CTETRA     14111       1    2994    3003    3002    1141
CTETRA     14112       1    3002    3003     776    1141
CTETRA     14113       1    2805    2809     948     949
CTETRA     14114       1    3219    3220    3227     272
CTETRA     14115       1    2306    2508    2307     433
CTETRA     14116       1    3219    3227    3228     759
CTETRA     14117       1    2897     265     266    1014
CTETRA     14118       1    2594    2595    2604     346
CTETRA     14119       1    2594    2599    2595     346
CTETRA     14120       1    2973     883     774     947
CTETRA     14121       1     772     776     774     773
CTETRA     14122       1    1276    1285    2574     223
CTETRA     14123       1    2066     613    2596     884
CTETRA     14124       1    2864    1085     832     619
CTETRA     14125       1    2978     950     952     947
CTETRA     14126       1    3999    2076    2073    2875
CTETRA     14127       1    1936    1941     772     949
CTETRA     14128       1    2866    2869    2871    1006
CTETRA     14129       1    1956    1960     196     204
CTETRA     14130       1    2694    2712     800     622
CTETRA     14131       1    2967    2977    1146     623
CTETRA     14132       1    2703    2714    2715     688
CTETRA     14133       1     567     565     569     562
CTETRA     14134       1    2632    2658    2657     927
CTETRA     14135       1    2913    2943    2941     564
CTETRA     14136       1    1245    1246    1279     561
CTETRA     14137       1    2632    2642    2637     606
CTETRA     14138       1    2927     927    1118     669
CTETRA     14139       1     209     196     203      42
CTETRA     14140       1    2693    2712    2694     622
CTETRA     14141       1    2926    2928    2927    1118
CTETRA     14142       1    2631    2632    2657     878
CTETRA     14143       1    2698     893     196     657
CTETRA     14144       1    2012     936     933     415
CTETRA     14145       1     711    1091     415     565
CTETRA     14146       1    2020    2029    2932    1053
CTETRA     14147       1    2642     926     563     602
CTETRA     14148       1    2948     937     936     508
CTETRA     14149       1    2927    2929    2930    1143
CTETRA     14150       1    2635    2649    2650     567
CTETRA     14151       1    2006    2009    2008     937
CTETRA     14152       1    2653     711     933     565
CTETRA     14153       1    2628    1124    2629     569
CTETRA     14154       1    2930    2931    2936    1054
CTETRA     14155       1    2654    2656    2664     711
CTETRA     14156       1    2911    2931    2912    1091
CTETRA     14157       1    4007    4008    2029    2932
CTETRA     14158       1    2021    2030    2029    1054
CTETRA     14159       1    2948    2949    2960     937
CTETRA     14160       1     814     816     815     341
CTETRA     14161       1    4007    2035    2936    1054
CTETRA     14162       1    1091    1143     712     713
CTETRA     14163       1    2911    2932    2931    1091
CTETRA     14164       1    4044    2999    1928    3000
CTETRA     14165       1    2784     772     191    1076
CTETRA     14166       1    2783     191    2784     773
CTETRA     14167       1    2848    2992    2849     673
CTETRA     14168       1    2628    2682    2681     508
CTETRA     14169       1    2937    2938    2948     569
CTETRA     14170       1    1928    1931    1929     777
CTETRA     14171       1    1921     994    2846     194
CTETRA     14172       1    2751    2789    2790     191
CTETRA     14173       1    1453    1454    1459     300
CTETRA     14174       1    1921    1933    2846     994
CTETRA     14175       1    4045    1933    1928    2999
CTETRA     14176       1    3189    3201    3197     671
CTETRA     14177       1    1453    1459    1458     299
CTETRA     14178       1    1465    1466    1471     665
CTETRA     14179       1     301     671     670     538
CTETRA     14180       1    3091     478     299     359
CTETRA     14181       1    3937    3938    1995    2678
CTETRA     14182       1    1330    2324    2325     552
CTETRA     14183       1    1179    1193    1189     485
CTETRA     14184       1    3173    3192     670     359
CTETRA     14185       1    2992    2993     876    1045
CTETRA     14186       1    3172    1114    3173     670
CTETRA     14187       1    3173    3192    3189     670
CTETRA     14188       1    3026    3031     769     768
CTETRA     14189       1    3172     766     752     670
CTETRA     14190       1    3026    3027    3034     769
CTETRA     14191       1    1796    1797    1548     919
CTETRA     14192       1    3024    3028    3032     770
CTETRA     14193       1    1184    1230    1229    1104
CTETRA     14194       1    4023    3045    1974    3047
CTETRA     14195       1    1922    3047    1974    1013
CTETRA     14196       1    3684    3685    1859    1062
CTETRA     14197       1    3432    1551    1548     417
CTETRA     14198       1    1922    3039    3047    1013
CTETRA     14199       1    4030    4031    1967    3062
CTETRA     14200       1    2697    2703    2715     196
CTETRA     14201       1    1956    1964    1967     204
CTETRA     14202       1    4028    4029    1969    3053
CTETRA     14203       1    1795    1796    1551     417
CTETRA     14204       1    2850    1043     672    1044
CTETRA     14205       1    3432    3433    1551     636
CTETRA     14206       1    3424    1168    3425     246
CTETRA     14207       1    1411    1417    1044     679
CTETRA     14208       1    3111    3115    3112     946
CTETRA     14209       1    3979    1627    1625     584
CTETRA     14210       1    2759    2761     805    1144
CTETRA     14211       1     191     996     994     189
CTETRA     14212       1    3096    3101    3097    1144
CTETRA     14213       1    4052    2178    2186    3110
CTETRA     14214       1     496     178     830     444
CTETRA     14215       1    2293     982    2297     721
CTETRA     14216       1    1804    1566    1571     498
CTETRA     14217       1    3569    3627    1669     982
CTETRA     14218       1    3568    1667    1665     361
CTETRA     14219       1    1863    1879    1878     412
CTETRA     14220       1     576      84    1139      85
CTETRA     14221       1     954     709     710     358
CTETRA     14222       1    3436    1553    1556     705
CTETRA     14223       1    4053    2192    3108    3109
CTETRA     14224       1    4052    4053    2178    3108
CTETRA     14225       1    3582      68      67      70
CTETRA     14226       1    4268    3581    4298     954
CTETRA     14227       1    3424    1169    1170     251
CTETRA     14228       1    1358    1373    3205    1147
CTETRA     14229       1    1844    1860    1859     542
CTETRA     14230       1    3694    1315    2606    2610
CTETRA     14231       1    1335    1339    1336     763
CTETRA     14232       1    2605    2610    2606     761
CTETRA     14233       1    3207    3249    3208     717
CTETRA     14234       1    3207    3208    3324    1127
CTETRA     14235       1    2225    2226    2242     612
CTETRA     14236       1    2228    2246    2241     787
CTETRA     14237       1    1359    1105    1360     972
CTETRA     14238       1    3362    3363    1171      61
CTETRA     14239       1    1353     783     784     943
CTETRA     14240       1     690     843     969     423
CTETRA     14241       1    1384    1387    3242     423
CTETRA     14242       1    2227    2228    2241     787
CTETRA     14243       1    2134    2137    2136     702
CTETRA     14244       1    3693    1315    1318    2606
CTETRA     14245       1    2131    2134    2133     316
CTETRA     14246       1    2133    2134    2136     905
CTETRA     14247       1    3145     410     871     328
CTETRA     14248       1    4170    3148    1496    3155
CTETRA     14249       1    1495    1497    1496     660
CTETRA     14250       1    3113    3117    3119     482
CTETRA     14251       1    2329    1037    1098     500
CTETRA     14252       1    3694    3695    1312    2610
CTETRA     14253       1    4074    4075    2202    3150
CTETRA     14254       1    3091     610     478     359
CTETRA     14255       1     317     320    1050     482
CTETRA     14256       1    2421    2429    2433     409
CTETRA     14257       1     318    1037    1050     480
CTETRA     14258       1    1423    1424    1431     482
CTETRA     14259       1    2122    2125    2124     566
CTETRA     14260       1    4105    4106    2122    3262
CTETRA     14261       1    4189    4190    1430    3116
CTETRA     14262       1    3694    1312    1315    2610
CTETRA     14263       1    4187    1429    1428    3118
CTETRA     14264       1    1430    3115    3116     946
CTETRA     14265       1    3283     464     146    1123
CTETRA     14266       1    4202    3007    1195    3009
CTETRA     14267       1    3272    3277    3273    1090
CTETRA     14268       1    4087    4088    2090    3292
CTETRA     14269       1    3358    3359    1170     886
CTETRA     14270       1    1541    1545     928     939
CTETRA     14271       1    3340    3835    3341     323
CTETRA     14272       1    2848     194    3001     673
CTETRA     14273       1    1180     875     962    1040
CTETRA     14274       1    2183    3106    2187     193
CTETRA     14275       1    2097    2101    2099     632
CTETRA     14276       1    4093    4094    2100    3318
CTETRA     14277       1    3834    2309    2308     553
CTETRA     14278       1    2045     264    2055     267
CTETRA     14279       1    2072    2074    2073    1006
CTETRA     14280       1    2812    2819    2820     771
CTETRA     14281       1    2966    2980    2967     623
CTETRA     14282       1    4148    1349    3298    3309
CTETRA     14283       1    1339     945     428     763
CTETRA     14284       1    2968    1125     622    1146
CTETRA     14285       1    1346    1353     783     784
CTETRA     14286       1    2810    2811    2817     952
CTETRA     14287       1    4146    1341    1335    3319
CTETRA     14288       1    2798    2817    2811     883
CTETRA     14289       1     545     751     547     546
CTETRA     14290       1    2179    2180    2185     193
CTETRA     14291       1    3450    3451    1564     381
CTETRA     14292       1    3548    1662    1664     986
CTETRA     14293       1    3412    3556    3555    1637
CTETRA     14294       1    1893     382    1909     190
CTETRA     14295       1    1427    2331    2370     677
CTETRA     14296       1     655     727     934     527
CTETRA     14297       1    3390    1670    1672     475
CTETRA     14298       1    1848    1849    1864     385
CTETRA     14299       1    3389    3390    1515     492
CTETRA     14300       1    1670    1672     475     474
CTETRA     14301       1    2330    2331    2778     680
CTETRA     14302       1    4275    3609    1618     253
CTETRA     14303       1      36     836     250     510
CTETRA     14304       1     683     676     675     677
CTETRA     14305       1    3610    3611    2259     253
CTETRA     14306       1     581     654     453     582
CTETRA     14307       1    1548     730     417     919
CTETRA     14308       1    3754    1418    2775     676
CTETRA     14309       1    2760    1115     805     280
CTETRA     14310       1    4275    1620    3611     253
CTETRA     14311       1    3898    2211    2326     781
CTETRA     14312       1      36     250      62     510
CTETRA     14313       1    2188    2189    2193     804
CTETRA     14314       1    4275    3610    3609     253
CTETRA     14315       1    3432    2260    2259     729
CTETRA     14316       1    1183    1255    1254     768
CTETRA     14317       1    2725    2726    2727    1073
CTETRA     14318       1    1230     681    1104     770
CTETRA     14319       1    1937    2706     800     992
CTETRA     14320       1    2695    2696    1130     992
CTETRA     14321       1    2712     688     800      42
CTETRA     14322       1    2693    2816     490     622
CTETRA     14323       1    3678    1723    1708     170
CTETRA     14324       1    3677    1723    3678     212
CTETRA     14325       1    3971    1608    1609     202
CTETRA     14326       1    3970    3333    3971    1609
CTETRA     14327       1    2578     831    2580     613
CTETRA     14328       1    2864     834     832    1085
CTETRA     14329       1    3952    3953    2052    2668
CTETRA     14330       1    2052    2058    2057     340
CTETRA     14331       1    1385     843     419     423
CTETRA     14332       1     905    1148     902     692
CTETRA     14333       1    2498    2499    2556     642
CTETRA     14334       1    3238    3240    3239    1009
CTETRA     14335       1    3481    1682    1681    1547
CTETRA     14336       1    1360    1374    1371     972
CTETRA     14337       1    1373     637    3258     863
CTETRA     14338       1    2500    2558    2559     970
CTETRA     14339       1    3482    1546    1682    1547
CTETRA     14340       1    3418    1163    3419     468
CTETRA     14341       1    3367     514    1167     512
CTETRA     14342       1    3300    3303    3302     783
CTETRA     14343       1    3683    3684    1874    1062
CTETRA     14344       1    3745    3746    1202    2754
CTETRA     14345       1    3268    3305    3301     782
CTETRA     14346       1    2451    2452    2472     465
CTETRA     14347       1     772     774     776     795
CTETRA     14348       1    1195    1198    1197     958
CTETRA     14349       1    1188    1191    1202     487
CTETRA     14350       1    3049      37    3075      35
CTETRA     14351       1    3303    3304    3310     784
CTETRA     14352       1    1332    1030    2466     698
CTETRA     14353       1    3281    1031     974     464
CTETRA     14354       1    1215      39    3048      35
CTETRA     14355       1    3339    3836    3340     323
CTETRA     14356       1    3268     974     975     464
CTETRA     14357       1    1443    1444    1446    1032
CTETRA     14358       1    2577    2584    2580    1081
CTETRA     14359       1    2860    2861    2923     823
CTETRA     14360       1    2332    2333    2464    1030
CTETRA     14361       1    1437    2428     953    1101
CTETRA     14362       1    4215    4216    1234    3078
CTETRA     14363       1    2437     976    1122    1119
CTETRA     14364       1    3656      18     880      21
CTETRA     14365       1     864     799     659     660
CTETRA     14366       1    2394    2408    2395     864
CTETRA     14367       1    3065    3077     326     502
CTETRA     14368       1    3726    1242    1241    2728
CTETRA     14369       1    1234    3078    3079     326
CTETRA     14370       1    2701    2710    2702     503
CTETRA     14371       1    4216    1234    3078    3079
CTETRA     14372       1    4215    1234    1228    3078
CTETRA     14373       1    1473     864    2393     865
CTETRA     14374       1    3716    3717    1274    2646
CTETRA     14375       1    1219    1220    2707      40
CTETRA     14376       1    3883    3884    2238    2343
CTETRA     14377       1    3884    2235    2238    1136
CTETRA     14378       1    3884    2355    2235    1136
CTETRA     14379       1    1149    1136    1129     817
CTETRA     14380       1    2870     343     832     823
CTETRA     14381       1    2401    1129    1149    1136
CTETRA     14382       1    3573    3662    3574    1676
CTETRA     14383       1    3622    2302    4299     543
CTETRA     14384       1    3619    3620    2253     709
CTETRA     14385       1    2253     709     954     706
CTETRA     14386       1    1278    1280    2920     603
CTETRA     14387       1    2707    2719    2720      40
CTETRA     14388       1    1219    2691      34      35
CTETRA     14389       1    2914    2918    2915     603
CTETRA     14390       1    4238    1278    1280    2920
CTETRA     14391       1    3884    3885    2235    2355
CTETRA     14392       1    4237    1280    1279     604
CTETRA     14393       1    2554    2555    2557     643
CTETRA     14394       1    3883    2343    2238    2402
CTETRA     14395       1    3883    2238    2239    2402
CTETRA     14396       1    4246    4247    1308    2880
CTETRA     14397       1    2224    2225    2242     612
CTETRA     14398       1    1305    2880    1308     303
CTETRA     14399       1    1301    1302    1305     851
CTETRA     14400       1    2219    3122    2225     612
CTETRA     14401       1    2219    2225    2224     612
CTETRA     14402       1    3720    2568    2727     979
CTETRA     14403       1    1318    1319    1322    1011
CTETRA     14404       1    4073    4074    2208    3142
CTETRA     14405       1    4075    4076    2196    3143
CTETRA     14406       1    2196    2203    2202     802
CTETRA     14407       1    3857    3858    2080    2484
CTETRA     14408       1    3858    3859    2086    2485
CTETRA     14409       1    4144    4145    1368    3321
CTETRA     14410       1    2055    2894    2061     267
CTETRA     14411       1    2038    2045    2044     233
CTETRA     14412       1    2889    2906    2897     267
CTETRA     14413       1    2611    2614    2616     596
CTETRA     14414       1    2055     264    2890     267
CTETRA     14415       1    2046    2890    2055     264
CTETRA     14416       1    2038    2039    2045     596
CTETRA     14417       1    3100    3101    3103    1102
CTETRA     14418       1    2067     884    2603     270
CTETRA     14419       1    2683    2686    2684     815
CTETRA     14420       1    4011    2957    2011    2958
CTETRA     14421       1    1401    1405    1403     350
CTETRA     14422       1    4011    2011    2014    2958
CTETRA     14423       1    1253    2568     979     978
CTETRA     14424       1    2568    2569    2727     979
CTETRA     14425       1    3027    3032    3028     770
CTETRA     14426       1    3643    1028    1652     451
CTETRA     14427       1    3815    3816    1401    2823
CTETRA     14428       1    2821    2823    2822     350
CTETRA     14429       1    1182    2726    1231    1073
CTETRA     14430       1    4017    1987    2963    2964
CTETRA     14431       1    3815    1401    1398    2823
CTETRA     14432       1    3816    2823    2821     350
CTETRA     14433       1    4016    1987    1999    2963
CTETRA     14434       1    4187    1428    3117    3118
CTETRA     14435       1    4014    4015    2002    2962
CTETRA     14436       1    1432    1435    1434     639
CTETRA     14437       1    4017    1997    1987    2964
CTETRA     14438       1    2367    2369    2368    1050
CTETRA     14439       1    2367    2378    2374     480
CTETRA     14440       1    1270    1271     855     507
CTETRA     14441       1    2961    1047    2964     518
CTETRA     14442       1    3721    1182    1257    2727
CTETRA     14443       1     885     462     967     717
CTETRA     14444       1    4186    1428    1424     482
CTETRA     14445       1    2961    2964    2963     518
CTETRA     14446       1    1184    3024    3032     770
CTETRA     14447       1    3024     325     335    1104
CTETRA     14448       1    4228    4229    1268    2857
CTETRA     14449       1    2557    2559    2558     970
CTETRA     14450       1    1957    2697    2748     196
CTETRA     14451       1    3927    1971    1966    2746
CTETRA     14452       1    2856    2857    3030     517
CTETRA     14453       1    1947    2986    2987     951
CTETRA     14454       1     950     948     952     947
CTETRA     14455       1    1944    1945    1951    1145
CTETRA     14456       1    1944    1951    1954    1130
CTETRA     14457       1    1937    1943    2706     992
CTETRA     14458       1    1937     800    1938     992
CTETRA     14459       1    1943    1944    1954    1130
CTETRA     14460       1    3505    1786    1787    1562
CTETRA     14461       1    3877    2204    2198    2430
CTETRA     14462       1    3875    2431    2154    2432
CTETRA     14463       1    1926    1938    1937     800
CTETRA     14464       1    3511    1801    1800    1564
CTETRA     14465       1    1637    1651     458     452
CTETRA     14466       1    1801    1564    1567     377
CTETRA     14467       1    3510    1800    1799    1575
CTETRA     14468       1    1590    1132    1096    1042
CTETRA     14469       1    1892    1128    1907     911
CTETRA     14470       1    3681    1903    3682    1042
CTETRA     14471       1    1904    1132    1590    1042
CTETRA     14472       1     205     206     207     645
CTETRA     14473       1    3525    3526    1916    1589
CTETRA     14474       1     206    1137     647    1080
CTETRA     14475       1    1901    1917    1916    1080
CTETRA     14476       1    3641    3642    2284    1028
CTETRA     14477       1     205     453     459      30
CTETRA     14478       1    1891    1907    1906     911
CTETRA     14479       1    1890    1891    1906     911
CTETRA     14480       1    1874     174    1889    1063
CTETRA     14481       1    3635    1005    2279     111
CTETRA     14482       1    1876     820    1891     792
CTETRA     14483       1    3677    1738    1723     212
CTETRA     14484       1    1161     938     168     134
CTETRA     14485       1    3972    3372    3371      55
CTETRA     14486       1    3972    3371    3973    1613
CTETRA     14487       1     777    1076    1141    1045
CTETRA     14488       1    1876    1877    1892     820
CTETRA     14489       1    3397    3540    3398     155
CTETRA     14490       1     442     634     292     295
CTETRA     14491       1    3465     206    2288    1080
CTETRA     14492       1    3395    3542    1674     925
CTETRA     14493       1    3473    1582    1588     131
CTETRA     14494       1    1821    1837    1836     154
CTETRA     14495       1    1850    1851    1866    1020
CTETRA     14496       1    1675     899     155     922
CTETRA     14497       1    1810    1579    1578     593
CTETRA     14498       1    1849     443     177     385
CTETRA     14499       1    2750    2770    2772     188
CTETRA     14500       1    3660    3661    2299     292
CTETRA     14501       1    1895    1911    1910     141
CTETRA     14502       1    3393    3542    3394     925
CTETRA     14503       1    1576     331     599     579
CTETRA     14504       1     436     305     437     290
CTETRA     14505       1    3425    1171    3426     775
CTETRA     14506       1    1690    1083    1705     248
CTETRA     14507       1    3680    1693    1542     139
CTETRA     14508       1     572     786     201     102
CTETRA     14509       1    1810    1811    1826    1065
CTETRA     14510       1    1694     208     136     134
CTETRA     14511       1    3496    3497    1796    1551
CTETRA     14512       1    4151    1346    3308    3310
CTETRA     14513       1    3675    1783    1768     276
CTETRA     14514       1    1120    1059     276     919
CTETRA     14515       1     166     163     408     402
CTETRA     14516       1    1833    1849    1848     384
CTETRA     14517       1    1670    1671    1672     474
CTETRA     14518       1    1513     475     910     497
CTETRA     14519       1    3678    1709    1724     929
CTETRA     14520       1    4273    1624    3614     895
CTETRA     14521       1    3437    2253    2269     706
CTETRA     14522       1    3456    1516    3457     140
CTETRA     14523       1    4152    1348    1346    3310
CTETRA     14524       1    4166    4167    1500    3157
CTETRA     14525       1    3614    3615    2262      97
CTETRA     14526       1    3607    2255    2266     730
CTETRA     14527       1    3444    1560     732    1077
CTETRA     14528       1      57     839    1059     838
CTETRA     14529       1    3430    2265    1059     797
CTETRA     14530       1    1597     166    1599     959
CTETRA     14531       1    3495    1548    1797    1559
CTETRA     14532       1    3495    1797    1798    1559
CTETRA     14533       1    3334    3335    1154     938
CTETRA     14534       1    1849     177    1864     385
CTETRA     14535       1    1827    1828    1843     916
CTETRA     14536       1    3687    1828    1813     599
CTETRA     14537       1     888     941     966     579
CTETRA     14538       1    1709    1710    1725     255
CTETRA     14539       1    4281     407    1596     402
CTETRA     14540       1    1853    1869    1868    1025
CTETRA     14541       1    1868      54    1884      13
CTETRA     14542       1    1867    1868    1883    1002
CTETRA     14543       1    1644    1646    1648     634
CTETRA     14544       1    1608    1609     202     447
CTETRA     14545       1      18     226     431      11
CTETRA     14546       1    1176     202     938     172
CTETRA     14547       1    3458     281    1570     157
CTETRA     14548       1    3444     813    4287    1077
CTETRA     14549       1    3333    3334    1154     938
CTETRA     14550       1    1481    3087    3158    1033
CTETRA     14551       1    1752     275     249     509
CTETRA     14552       1    1593    1137     206    1080
CTETRA     14553       1    1740    1741     414     158
CTETRA     14554       1    3341    3342    1165     101
CTETRA     14555       1    1726    1727    1742     416
CTETRA     14556       1    3969     960    1597     959
CTETRA     14557       1    3464    1592    4291     207
CTETRA     14558       1    3667    2904    2902     519
CTETRA     14559       1    4036    1939    1925    2991
CTETRA     14560       1    1810    1579     593     588
CTETRA     14561       1    2981    2990    2989    1125
CTETRA     14562       1    1944     991    1145     992
CTETRA     14563       1    1766    1120    1781     417
CTETRA     14564       1    3605     446    2266     839
CTETRA     14565       1    4163    4164    1475    3276
CTETRA     14566       1    4038    4039    1946    2986
CTETRA     14567       1    1684    1533    1538     744
CTETRA     14568       1    3459    1579    1565     588
CTETRA     14569       1    3420     965    1538     744
CTETRA     14570       1    3771    1491    1490    2413
CTETRA     14571       1    2326    2381    2380     653
CTETRA     14572       1    2406    2409     870     798
CTETRA     14573       1    3186    3188    3187     470
CTETRA     14574       1    1001     501     334     336
CTETRA     14575       1    1924    1994    1990     697
CTETRA     14576       1    1489    1501    1503     470
CTETRA     14577       1    4021    1922    3039    3047
CTETRA     14578       1    1484    2414     472     667
CTETRA     14579       1    1489    1490    1501     472
CTETRA     14580       1    2376    2380    2381     484
CTETRA     14581       1    1483    1484    1489     667
CTETRA     14582       1    2391     809     890     818
CTETRA     14583       1     650    1072    1115     781
CTETRA     14584       1    3769    3770    1484    2414
CTETRA     14585       1    1393    1394    1396     846
CTETRA     14586       1    4129    3217    1399    3218
CTETRA     14587       1    4131    1393    1396     846
CTETRA     14588       1    3810    1383    2520     843
CTETRA     14589       1    1385     969     843     423
CTETRA     14590       1     318    1037     480    1038
CTETRA     14591       1    3811    1389    1386    2527
CTETRA     14592       1     127     786     550     221
CTETRA     14593       1    3585    3586     222     151
CTETRA     14594       1    4265    3585    3584     151
CTETRA     14595       1    3946    2016    2690     708
CTETRA     14596       1    4257    4256    3672    1329
CTETRA     14597       1    2911    2912    2937     415
CTETRA     14598       1    4257    4258    1329     143
CTETRA     14599       1    2606    2621    2624    1011
CTETRA     14600       1    1315    1319    1318    1011
CTETRA     14601       1    2687    2690    2689     933
CTETRA     14602       1    4241    1293    1290    2922
CTETRA     14603       1    2862    2863    2921     851
CTETRA     14604       1    1289    1293    1292     853
CTETRA     14605       1    2016    2019    2018     708
CTETRA     14606       1    4243    1299    1296    2921
CTETRA     14607       1    3664     849    2844     850
CTETRA     14608       1    4235    4236    1279    2947
CTETRA     14609       1    1243     681    2730     682
CTETRA     14610       1    3726    3727    1242    2729
CTETRA     14611       1     631     215     573     118
CTETRA     14612       1    1218      37      40      35
CTETRA     14613       1    1215    3048    1216      35
CTETRA     14614       1    1215    1216    1217      35
CTETRA     14615       1    3836     347     323     322
CTETRA     14616       1    4151    4152    1346    3310
CTETRA     14617       1    2772     996     188     877
CTETRA     14618       1    2025    2027    2844     849
CTETRA     14619       1     849     850       9     852
CTETRA     14620       1    3417    1160    1166     257
CTETRA     14621       1    3679    3680    1694     136
CTETRA     14622       1    3971    1609    3333     202
CTETRA     14623       1    3971    3373    3972    1608
CTETRA     14624       1    3989    2840    2034    2845
CTETRA     14625       1    3377    3552    3551    1656
CTETRA     14626       1    3991    2890    2046    2907
CTETRA     14627       1    2842    1034    2902    1107
CTETRA     14628       1    2532    2560    2561    1142
CTETRA     14629       1    2842    2902    2909    1107
CTETRA     14630       1    2841    2843    2842    1084
CTETRA     14631       1     762     945     763     693
CTETRA     14632       1    3324    3325    3330    1131
CTETRA     14633       1    2446    2447    2540     664
CTETRA     14634       1    4147    4148    1340    3298
CTETRA     14635       1    1364    1369    1131     646
CTETRA     14636       1    4099    2106    2111    3253
CTETRA     14637       1    2047    2050    2935    1116
CTETRA     14638       1    4003    2050    2858    2935
CTETRA     14639       1    3240    1009     973     423
CTETRA     14640       1    1385    1388    1387     419
CTETRA     14641       1     970     973     971     644
CTETRA     14642       1    1360    1105    2565     972
CTETRA     14643       1    4176    4177    1482    3203
CTETRA     14644       1    4102    4103    2105    3255
CTETRA     14645       1    2357    2358    2362    1070
CTETRA     14646       1    3251    3254     462     793
CTETRA     14647       1    3487    1688    1687    1540
CTETRA     14648       1    2342    2355    1136    1133
CTETRA     14649       1    2229    2230    2247     757
CTETRA     14650       1     752     753     755     757
CTETRA     14651       1     946    1098    1037     500
CTETRA     14652       1    2356     754    2363    1133
CTETRA     14653       1    3486    1687    1686    1537
CTETRA     14654       1    3878    3879    2210    2429
CTETRA     14655       1    2430    2434    2433     801
CTETRA     14656       1    2433     801    2436     661
CTETRA     14657       1    3771    3772    1491    2413
CTETRA     14658       1    3199    3201    3202     471
CTETRA     14659       1    3201     540     671     471
CTETRA     14660       1    3877    3878    2204    2430
CTETRA     14661       1    2204    2430    2429     409
CTETRA     14662       1    3141    3144    3142     410
CTETRA     14663       1    2152    2153    2197     268
CTETRA     14664       1    3164    3165    3166     661
CTETRA     14665       1    4169    4170    1496    3155
CTETRA     14666       1    2396    2397    2421     327
CTETRA     14667       1    2405    2408    2406     798
CTETRA     14668       1    1499    3156    3155     799
CTETRA     14669       1    4070    2233    2232    3181
CTETRA     14670       1    1497    1498    1499     660
CTETRA     14671       1    3139    1152     874    1100
CTETRA     14672       1    4169    1496    1499    3155
CTETRA     14673       1    2342    2401    2399    1149
CTETRA     14674       1    1426    1433    1430     677
CTETRA     14675       1    4191    2851    1419     675
CTETRA     14676       1    2207    3123    2213     988
CTETRA     14677       1    1429    3118    3115     946
CTETRA     14678       1     191    1076     777    1045
CTETRA     14679       1    2752     877     961    1045
CTETRA     14680       1    2237    2239    2238    1129
CTETRA     14681       1    2767    2772    2769     674
CTETRA     14682       1    2853     694    3040    1012
CTETRA     14683       1    3042    1018    1000    1013
CTETRA     14684       1    2846    2847    3107     194
CTETRA     14685       1     430     244     585     363
CTETRA     14686       1    1903     647     449    1137
CTETRA     14687       1    2785    2789    2792    1076
CTETRA     14688       1    2971    2972    2998     776
CTETRA     14689       1    2997    3000    2998     777
CTETRA     14690       1    2784    2789    2785    1076
CTETRA     14691       1    3497    1795    1551    1552
CTETRA     14692       1     589     430     251     592
CTETRA     14693       1    2752    2753    2792     961
CTETRA     14694       1     789     739     791     726
CTETRA     14695       1    2993    3003    2994    1141
CTETRA     14696       1    4042    2971    1940    2988
CTETRA     14697       1    2974     958    2995     883
CTETRA     14698       1    4120    3225    3220     307
CTETRA     14699       1    3651    2289    2292     778
CTETRA     14700       1    2514    2518    2517     686
CTETRA     14701       1     493     686    1048    1019
CTETRA     14702       1    1915    1916    1595     126
CTETRA     14703       1    1886     858     825     389
CTETRA     14704       1    2984    2988    2987     951
CTETRA     14705       1    1947    2987    1948     951
CTETRA     14706       1    1947     950    2986     951
CTETRA     14707       1     442     227     635     295
CTETRA     14708       1    1157     367     590     116
CTETRA     14709       1    4018    1997    2964    1047
CTETRA     14710       1    4019    4020    1998    3041
CTETRA     14711       1    1671    1678    1672     474
CTETRA     14712       1    1687    1688    1703     243
CTETRA     14713       1    1643    1646    1644     634
CTETRA     14714       1    2852    1047    2853    1012
CTETRA     14715       1    3464    2282    2287     207
CTETRA     14716       1    4019    1998    1996    3041
CTETRA     14717       1    2852    2964    2853    1047
CTETRA     14718       1    3033     338     767    1097
CTETRA     14719       1    1996    3041    1998    1012
CTETRA     14720       1    1866    1882    1881    1061
CTETRA     14721       1    3661    3662    2298     292
CTETRA     14722       1    3574    1676    3662     292
CTETRA     14723       1    1643    1675    1676     293
CTETRA     14724       1    4226    1266    3029     977
CTETRA     14725       1    4229    1269    2857    2953
CTETRA     14726       1    1460    2352    2351     300
CTETRA     14727       1    3765    3766    1460    2351
CTETRA     14728       1    1269    2857    2953     507
CTETRA     14729       1    3025     517    3030     977
CTETRA     14730       1    2626     855    2627     341
CTETRA     14731       1    3128    3129    3131    1038
CTETRA     14732       1    2938    2941    2942     562
CTETRA     14733       1    1434    2369    2373    1050
CTETRA     14734       1    2373    1050     317     320
CTETRA     14735       1    1408     483    1423     321
CTETRA     14736       1    1268    2857    1269     507
CTETRA     14737       1    2206     652    2212     653
CTETRA     14738       1    3130    3133    3132     478
CTETRA     14739       1    4229    1269    1268    2857
CTETRA     14740       1    4005    4006    2041    2936
CTETRA     14741       1    3136    1140     610     612
CTETRA     14742       1    3113    3114    3129     318
CTETRA     14743       1    2374    2379    2375     480
CTETRA     14744       1    2841    2909    2908    1107
CTETRA     14745       1    2024    1084    1106     852
CTETRA     14746       1    2032     861    2033     596
CTETRA     14747       1    3189     301     671     670
CTETRA     14748       1    2314     861    2315     322
CTETRA     14749       1    3090    3133    3091     610
CTETRA     14750       1    3644    3645    2287     205
CTETRA     14751       1    3091    3133    3130     478
CTETRA     14752       1    3091    3092    3193     299
CTETRA     14753       1    1453    1455    1456     539
CTETRA     14754       1    3280    3281    3283     464
CTETRA     14755       1    1327    2833    2835    1088
CTETRA     14756       1    3268    3281    3269     974
CTETRA     14757       1     145     146     219     464
CTETRA     14758       1    4248    2885    1311    2887
CTETRA     14759       1    3682    1903    1888     449
CTETRA     14760       1    3917    2696    1954    2803
CTETRA     14761       1    1938     991    1944     992
CTETRA     14762       1    1142     863     646     714
CTETRA     14763       1    3412    1522    1524     458
CTETRA     14764       1    3248     714     993     968
CTETRA     14765       1    3235    3259    3260     971
CTETRA     14766       1    2695    2713    2706     992
CTETRA     14767       1    1943    2696    2706     992
CTETRA     14768       1    2984     774    2988     951
CTETRA     14769       1    3841    3842    2144    2503
CTETRA     14770       1    3839    3840    2149    2317
CTETRA     14771       1    2147    2149    2148     495
CTETRA     14772       1    2696    2803    2807    1130
CTETRA     14773       1    3915    3916    1953    2804
CTETRA     14774       1    3840    2149    2317    2504
CTETRA     14775       1    1938    1944    1943     992
CTETRA     14776       1    2526     824     433     687
CTETRA     14777       1    2306    2509    2508     691
CTETRA     14778       1    2995     486    1141     795
CTETRA     14779       1    1190     961    2781     962
CTETRA     14780       1    2995    3006    3004     486
CTETRA     14781       1    2497    1148    2512     689
CTETRA     14782       1    2513    2526    2522     687
CTETRA     14783       1    2994    3004    3013    1064
CTETRA     14784       1    2791     996     191     189
CTETRA     14785       1    3824     723    3825     274
CTETRA     14786       1    3852    3853    2103    2537
CTETRA     14787       1    3743    1201    1199    2788
CTETRA     14788       1    2081     885     460     664
CTETRA     14789       1    2103    2104    2118     796
CTETRA     14790       1    2534    2546    2554     796
CTETRA     14791       1    2104    2108    2105     793
CTETRA     14792       1    3249     462     717     968
CTETRA     14793       1    3034    3037    3036     336
CTETRA     14794       1    2103    2537    2112     967
CTETRA     14795       1    2114    2536     460     967
CTETRA     14796       1    2083    3315    2087     311
CTETRA     14797       1    2572    2737    2738    1001
CTETRA     14798       1     633     354     587     632
CTETRA     14799       1    4165    1481    3087    3158
CTETRA     14800       1    2533     714     717     968
CTETRA     14801       1    2536    2539    2538     460
CTETRA     14802       1    2571    2572    2738    1001
CTETRA     14803       1    2116     641    2120     796
CTETRA     14804       1    2568    2648    2569     337
CTETRA     14805       1    1253    1258    2568     978
CTETRA     14806       1    1182    1257    2727     979
CTETRA     14807       1    3718    3719    1258    2645
CTETRA     14808       1    2705    2706    2713     800
CTETRA     14809       1    2981    2982    2991     991
CTETRA     14810       1    3804    2565    1363    2567
CTETRA     14811       1    2562    2565    2567    1105
CTETRA     14812       1    2695    2696    2807    1130
CTETRA     14813       1    1949    1950    1952     948
CTETRA     14814       1    1953    2803    1954     948
CTETRA     14815       1    2913    2929    2925     878
CTETRA     14816       1    2807    2811    2810    1130
CTETRA     14817       1    2913    2925    2914     605
CTETRA     14818       1    2911    2932    1091    1053
CTETRA     14819       1    2967    2980    2977     623
CTETRA     14820       1    3948    3949    2031    2663
CTETRA     14821       1    2995     958     486     883
CTETRA     14822       1    2022    2031    2030     713
CTETRA     14823       1    2021    2022    1054    1053
CTETRA     14824       1    2712    2715    2714     688
CTETRA     14825       1    3945    2016    2013    2690
CTETRA     14826       1    3777    3778    1479    2411
CTETRA     14827       1    3936    3937    1993    2678
CTETRA     14828       1    3936    1993    1994    2677
CTETRA     14829       1    3938    3939    1995    2679
CTETRA     14830       1    1993    1994    2677     696
CTETRA     14831       1    3940    2001    2670    2685
CTETRA     14832       1    1324    1328    1330     552
CTETRA     14833       1    3692    1321    2320    2621
CTETRA     14834       1    2629    2635    2630     567
CTETRA     14835       1    2029    1054    2932    1053
CTETRA     14836       1    3731    3732    1212    2708
CTETRA     14837       1    2320    2622    2621     551
CTETRA     14838       1    3693    3694    1315    2606
CTETRA     14839       1    2320    2321    2622     551
CTETRA     14840       1    2621    2622    2624    1011
CTETRA     14841       1    3807    1377    2501    2523
CTETRA     14842       1    1338    2444    1355    2545
CTETRA     14843       1    3796    1355    2443    2545
CTETRA     14844       1    3592    3665    3593     282
CTETRA     14845       1     633     354     785     693
CTETRA     14846       1    3931    3932    1986    2736
CTETRA     14847       1    3208    3250    3209     885
CTETRA     14848       1    2540     664     717    1003
CTETRA     14849       1    3208    3327    3324    1127
CTETRA     14850       1    3514    1804    1566    1571
CTETRA     14851       1    2469    2479    2470     693
CTETRA     14852       1    3312    3329    3328     785
CTETRA     14853       1    3833    3834    2308     103
CTETRA     14854       1    2446    2469    2483     252
CTETRA     14855       1    3922    1963    1962    2703
CTETRA     14856       1    2446    2469     252    1003
CTETRA     14857       1    3144    3164    3166     802
CTETRA     14858       1    2210    2429    2422     406
CTETRA     14859       1    3621    2269    2253     954
CTETRA     14860       1    2237    1129    1136     817
CTETRA     14861       1    1492    1493    1495     870
CTETRA     14862       1    1495    3148    1505     595
CTETRA     14863       1    1492    2407    1493     870
CTETRA     14864       1    1487    3158     659     869
CTETRA     14865       1    2406    2408    2409     798
CTETRA     14866       1    4164    1481    1475    1033
CTETRA     14867       1    3927    3928    1971    2747
CTETRA     14868       1    3927    1971    2746    2747
CTETRA     14869       1    3926    2746    1968    2748
CTETRA     14870       1    2251    2344     760     755
CTETRA     14871       1     996     994     194     673
CTETRA     14872       1    3887    2249    2250    2353
CTETRA     14873       1    3097    1144    3099    1150
CTETRA     14874       1     772     776    1076     795
CTETRA     14875       1    3886    2353    2250    2354
CTETRA     14876       1    3888    2344    2249    2353
CTETRA     14877       1    3383    3548    3384     986
CTETRA     14878       1    3474    3475    1584     719
CTETRA     14879       1    3909    2783    1919    2791
CTETRA     14880       1    3632    2295    2294     112
CTETRA     14881       1    1663    1665     369     749
CTETRA     14882       1    2024    2033     861    1106
CTETRA     14883       1    1481    3158    1487    1033
CTETRA     14884       1    3911    2795    1930    2802
CTETRA     14885       1    3592    3666    3665     284
CTETRA     14886       1     235      75     956      81
CTETRA     14887       1    3582    3583    2268      67
CTETRA     14888       1    3880    2216    2422    2423
CTETRA     14889       1    3437    3438    1554     956
CTETRA     14890       1    1479    2411    2393     864
CTETRA     14891       1    2249    2353    2344     755
CTETRA     14892       1    1473    1474    1480     865
CTETRA     14893       1    3885    2355    2354    1133
CTETRA     14894       1    1930    1932    2802     773
CTETRA     14895       1    4058    4059    2213    3123
CTETRA     14896       1    2241    2252     809     760
CTETRA     14897       1    2218     484    2223     653
CTETRA     14898       1    3909    1932    1919    2783
CTETRA     14899       1    4060    2225    2219    3122
CTETRA     14900       1    2196    2197    2203     802
CTETRA     14901       1    4076    2152    2196    3143
CTETRA     14902       1    2202    2209    2208     410
CTETRA     14903       1    2400    1129     327     871
CTETRA     14904       1    2393    2394    2418     865
CTETRA     14905       1    2810    2816    1146     623
CTETRA     14906       1    1210    2813    2812    2819
CTETRA     14907       1    2202    2203    2209     410
CTETRA     14908       1    2692    2693    2818      34
CTETRA     14909       1    1210    1211    2819     490
CTETRA     14910       1    3770    1490    1484    2414
CTETRA     14911       1    2159    2166    2165     123
CTETRA     14912       1     145     146     464    1123
CTETRA     14913       1    1398    1401    1400    1007
CTETRA     14914       1    3814    3815    1398    2305
CTETRA     14915       1    2158    2159    2165     219
CTETRA     14916       1    2077    3291    2090     197
CTETRA     14917       1    2144    2149    2504    1019
CTETRA     14918       1    3814    1398    1395    2305
CTETRA     14919       1    3813    3814    1395    2305
CTETRA     14920       1    3815    1398    2305    2823
CTETRA     14921       1    3671    3672    2836     152
CTETRA     14922       1    2827     330    2828     549
CTETRA     14923       1    4255    1327    2835    2836
CTETRA     14924       1    1327    2836    1329    1056
CTETRA     14925       1    2505     534    2519     887
CTETRA     14926       1     429     887     493    1048
CTETRA     14927       1    4258    1605    1606     142
CTETRA     14928       1    4258     142     355     143
CTETRA     14929       1    4256    3672    1329    2836
CTETRA     14930       1    3352    1634     367     909
CTETRA     14931       1    1773     556    1774     187
CTETRA     14932       1      60    1027     226      11
CTETRA     14933       1    2859    2860    2928     343
CTETRA     14934       1    4109    4110    2134    3232
CTETRA     14935       1    3223    3230    3229     905
CTETRA     14936       1    2927    1143    1118     927
CTETRA     14937       1    2136    2137    2139     702
CTETRA     14938       1    2056    2057    2062     340
CTETRA     14939       1    2073    2875    2076     342
CTETRA     14940       1    1113     349    1118     669
CTETRA     14941       1    4110    2137    2134    3232
CTETRA     14942       1    2040    2840    2907     879
CTETRA     14943       1    1478    1484    1483     667
CTETRA     14944       1    3957    3958    2066    2596
CTETRA     14945       1    2032    2311     861     596
CTETRA     14946       1    2919     608     607     603
CTETRA     14947       1    2310    2614    2611     596
CTETRA     14948       1    2593    2594    2617    1049
CTETRA     14949       1    2637     601    2638     223
CTETRA     14950       1    2633    2659    2658     669
CTETRA     14951       1    2658    1113     927     669
CTETRA     14952       1    2924     668     608     669
CTETRA     14953       1     608     606     607     603
CTETRA     14954       1    2032    2039    2038     596
CTETRA     14955       1    2034    1084     879    1106
CTETRA     14956       1    3836    2312    2315     322
CTETRA     14957       1    2949    2950    2956     814
CTETRA     14958       1    1253    1259    1258     978
CTETRA     14959       1    3154    3166    3167     268
CTETRA     14960       1    2854    2961    2950     695
CTETRA     14961       1    3033     694     338    1097
CTETRA     14962       1    2958    2959    2960     936
CTETRA     14963       1    3137    3186    3200     473
CTETRA     14964       1    1987    1047    1992     518
CTETRA     14965       1    3921    3922    1962    2704
CTETRA     14966       1    4174    4175    1503    3198
CTETRA     14967       1    1135     754     756    1070
CTETRA     14968       1    2853    2961    2854     694
CTETRA     14969       1    1484    2414    1490     472
CTETRA     14970       1    2961     814     695     518
CTETRA     14971       1    2671     816    2679     695
CTETRA     14972       1    2950    2961    2956     814
CTETRA     14973       1    2681     935     815     508
CTETRA     14974       1    1483     667    1489     471
CTETRA     14975       1    2853    2964    2961    1047
CTETRA     14976       1    1987    1992    1988     518
CTETRA     14977       1    2982    2983    2985    1145
CTETRA     14978       1    3142    3144    3150     410
CTETRA     14979       1    1945    2985    1946     950
CTETRA     14980       1    1946    1952    1951     950
CTETRA     14981       1    2196    2202    3143     802
CTETRA     14982       1    1945    1946    1951     950
CTETRA     14983       1    1949    1950     948     949
CTETRA     14984       1    1130    1145     950     952
CTETRA     14985       1    2693      42    2712     622
CTETRA     14986       1    2165     219     145     146
CTETRA     14987       1    1950    1953    1952     948
CTETRA     14988       1    4203    4204    1187    3008
CTETRA     14989       1    2983    2986    2985     950
CTETRA     14990       1     875     924     962    1040
CTETRA     14991       1    1939    2985    1945    1145
CTETRA     14992       1    2992    3011    3010     875
CTETRA     14993       1    2992    2993    3012     876
CTETRA     14994       1    3011    3018    3016    1040
CTETRA     14995       1    3920    3921    1927    2704
CTETRA     14996       1    3513    1803    1802    1568
CTETRA     14997       1     379     381     373     375
CTETRA     14998       1    3536    1905    1906    1580
CTETRA     14999       1    3043    1000     990    1013
CTETRA     15000       1    3021    3038    3022     501
CTETRA     15001       1    1966     624    1970     210
CTETRA     15002       1    2733    2737    2736     999
CTETRA     15003       1    1977    2747     616     615
CTETRA     15004       1    3053    3068    3067     210
CTETRA     15005       1     801     409     802     661
CTETRA     15006       1    3169    3184    3170    1152
CTETRA     15007       1    3052    3062    3053     204
CTETRA     15008       1    1855    1871    1870     289
CTETRA     15009       1    3052    3053    3067     211
CTETRA     15010       1    3063    3069    3064    1093
CTETRA     15011       1    2150     330     980     494
CTETRA     15012       1    1901     405     389    1080
CTETRA     15013       1    2353    2354    2363    1133
CTETRA     15014       1    3406    3820     392     393
CTETRA     15015       1    4060    4061    2225    3121
CTETRA     15016       1    3445    3446      19     901
CTETRA     15017       1    1854    1855    1870     289
CTETRA     15018       1    1869    1885    1884      56
CTETRA     15019       1    1452    3194    3195     299
CTETRA     15020       1    1869    1870    1885      56
CTETRA     15021       1    4079    4080    2175    3152
CTETRA     15022       1    4078    2163    2157    3153
CTETRA     15023       1    3382    3383    1528     368
CTETRA     15024       1    1814    1815     374    1074
CTETRA     15025       1     379     380     260     375
CTETRA     15026       1    1765    1766    1780     648
CTETRA     15027       1    3608    2260    2255     239
CTETRA     15028       1    2164    2174    3287     146
CTETRA     15029       1    2156    2157    2163     268
CTETRA     15030       1    2435     900    2437     976
CTETRA     15031       1    2431    2432    2434     801
CTETRA     15032       1    2155    2161    2337     900
CTETRA     15033       1    1750     249    1765     913
CTETRA     15034       1    1750    1751    1766     249
CTETRA     15035       1    2157    3153    2163     268
CTETRA     15036       1    2168    2171    2170     261
CTETRA     15037       1    3082    3151    3083     133
CTETRA     15038       1    3083    3168    3084     192
CTETRA     15039       1    1760     957    1775      75
CTETRA     15040       1    1457    3195    3093     483
CTETRA     15041       1    1746    1747    1762     997
CTETRA     15042       1    1631    1635    1632     710
CTETRA     15043       1    3164     802     410     328
CTETRA     15044       1    3099    1144    1102    1150
CTETRA     15045       1    2214    2221    2220     867
CTETRA     15046       1    2220    2221    2237     867
CTETRA     15047       1    2215    1129     867     327
CTETRA     15048       1    3982    3355    3354     904
CTETRA     15049       1     239     253     729     242
CTETRA     15050       1    1705    1706    1721     513
CTETRA     15051       1    2234    1133    2248     758
CTETRA     15052       1    4072    2214    2220    3183
CTETRA     15053       1    3425     775    1536     248
CTETRA     15054       1    2208    2214    3142     867
CTETRA     15055       1    1152     867    1129     871
CTETRA     15056       1    3974    1615    3370     918
CTETRA     15057       1    3140    3141    3185     867
CTETRA     15058       1    1691    1532    1692     597
CTETRA     15059       1    1691    1692    1707     597
CTETRA     15060       1    4175    1488    3198    3202
CTETRA     15061       1     981     635      21      22
CTETRA     15062       1    3633    3634     111     113
CTETRA     15063       1    2164    2170    2174     146
CTETRA     15064       1    3566    3633    3632     113
CTETRA     15065       1    3566    3632    3567    1663
CTETRA     15066       1    1661    1663    1662     369
CTETRA     15067       1    1659     111    1661     788
CTETRA     15068       1    3635    1659    3636    1005
CTETRA     15069       1    3382    3549    3383    1662
CTETRA     15070       1     930     369     370     985
CTETRA     15071       1    4170    1505    1496    3148
CTETRA     15072       1    3561    3641    3562    1650
CTETRA     15073       1     218     197     123     200
CTETRA     15074       1     472     666     540     471
CTETRA     15075       1    1782    1796    1120     919
CTETRA     15076       1    3235    3244    3240     424
CTETRA     15077       1    1105     971     970     972
CTETRA     15078       1    3234    3235    3260     971
CTETRA     15079       1    1375    1378    3234     424
CTETRA     15080       1    3560    1652    1653     451
CTETRA     15081       1    4136    1378    1381    3244
CTETRA     15082       1    4135    4136    1381    3243
CTETRA     15083       1    3375    3553    1654     263
CTETRA     15084       1    3483    1533    1683    1546
CTETRA     15085       1    3479    3480    1680    1545
CTETRA     15086       1    3234    3244    3235     424
CTETRA     15087       1    1358    1359    1373    1147
CTETRA     15088       1    4139    4140    1373    3258
CTETRA     15089       1    3414    3555    3554    1651
CTETRA     15090       1    1444    1090    1446    1032
CTETRA     15091       1    3419    1533    1546    1094
CTETRA     15092       1    1441    1443    1446    1032
CTETRA     15093       1    3280    1121     464    1123
CTETRA     15094       1    3554    1651    1649     457
CTETRA     15095       1    1734    1750    1749     837
CTETRA     15096       1    1346    1347    1353     784
CTETRA     15097       1    1346    1353    1350     783
CTETRA     15098       1    4272    1626    3616      96
CTETRA     15099       1    2088    2090    2089     200
CTETRA     15100       1    2365    2366    2383     479
CTETRA     15101       1    1632    1635    1634      69
CTETRA     15102       1    3473     721    1582     131
CTETRA     15103       1    3302    3303    3308     783
CTETRA     15104       1    4286     138     172     139
CTETRA     15105       1    1344    1067    1347    1052
CTETRA     15106       1    3325    3326     763     693
CTETRA     15107       1    3450    1564    1575    1074
CTETRA     15108       1    1800    1564    1801     377
CTETRA     15109       1    4146    3319    1335    3320
CTETRA     15110       1    3320    3321    3330    1131
CTETRA     15111       1    1335    1368    3320    1131
CTETRA     15112       1    3449    1575    1574    1112
CTETRA     15113       1    1779    1794    1793     640
CTETRA     15114       1    4142    1369    1367    3323
CTETRA     15115       1    1339    1340     762     763
CTETRA     15116       1    4145    3320    1368    3321
CTETRA     15117       1    1369    3322    3321     646
CTETRA     15118       1    1369    3321    1131     646
CTETRA     15119       1    2256      97      96      95
CTETRA     15120       1      87      89      84      86
CTETRA     15121       1    3513    1566    1803    1568
CTETRA     15122       1    1529     262     987     986
CTETRA     15123       1    3384    3548    3547    1664
CTETRA     15124       1    3390     492     475     497
CTETRA     15125       1     742    1078     743     744
CTETRA     15126       1    3391    1672    3543     475
CTETRA     15127       1    1436    1050    2373     320
CTETRA     15128       1    3391    3392    1514     475
CTETRA     15129       1    1836    1852    1851     153
CTETRA     15130       1    3543    1672    1673     475
CTETRA     15131       1     827     830     481     444
CTETRA     15132       1    3398     901    3399     156
CTETRA     15133       1    3398    3539    3399    1645
CTETRA     15134       1    3392    1513    1514     475
CTETRA     15135       1    3455    1514    1513     497
CTETRA     15136       1    3400    3445    4288    3827
CTETRA     15137       1    3392     475    3543     910
CTETRA     15138       1    3459    1508    1512     629
CTETRA     15139       1    3424     246    1534     243
CTETRA     15140       1    3424    1170    1168     251
CTETRA     15141       1    3460    1578    1579     593
CTETRA     15142       1    3458    1508    3459     281
CTETRA     15143       1    3355    3356     589     904
CTETRA     15144       1    3354    3355    1153     589
CTETRA     15145       1    3981    1629    3357     430
CTETRA     15146       1    3981    3357    3356     430
CTETRA     15147       1    3356    3357    1169     430
CTETRA     15148       1    3519    3520    1810    1579
CTETRA     15149       1    1474    1481    1480    1033
CTETRA     15150       1    3163    3164     662     661
CTETRA     15151       1    1467    1474    1473     865
CTETRA     15152       1    3420    1158    3421     965
CTETRA     15153       1    1458    3191    3196     299
CTETRA     15154       1    3680    1542    1544     139
CTETRA     15155       1    3354    3355     589     904
CTETRA     15156       1    3984    3350    3985    1601
CTETRA     15157       1    3349    3350    1158     399
CTETRA     15158       1     319     479     317     320
CTETRA     15159       1    1408    1422    1409     321
CTETRA     15160       1    4009    4010    2017    2910
CTETRA     15161       1    3346    3828    3347     122
CTETRA     15162       1    1697     466    1712     259
CTETRA     15163       1    3351    1634    3352     909
CTETRA     15164       1    3761    1409    1422    2371
CTETRA     15165       1    3428    3429    1543     314
CTETRA     15166       1    3760    1436    2373     320
CTETRA     15167       1     319     320     317     483
CTETRA     15168       1    2365    2366     479     320
CTETRA     15169       1    3758    3759    1436    2373
CTETRA     15170       1    2365    2372    2371     321
CTETRA     15171       1    1197     489     486     958
CTETRA     15172       1    4195    4196    1413    3018
CTETRA     15173       1    1682    1698    1697     743
CTETRA     15174       1    3763    2349    1456    2372
CTETRA     15175       1    1228    1108    3078     504
CTETRA     15176       1    3760    3761    1422    2371
CTETRA     15177       1    1236    1239    1238     332
CTETRA     15178       1    3076    3078    1108     326
CTETRA     15179       1    3415    3416    1545     928
CTETRA     15180       1    3728    2702    1232    2729
CTETRA     15181       1    2914    2947    2943     561
CTETRA     15182       1    3092    3195     299     483
CTETRA     15183       1    1546     468    1094     743
CTETRA     15184       1    3680    1542    4292    1544
CTETRA     15185       1    1762    1777     997     576
CTETRA     15186       1    1779    1138      84     640
CTETRA     15187       1    1422    1423    1436     320
CTETRA     15188       1    1291    1294    2591     618
CTETRA     15189       1    3701    3702    1291    2591
CTETRA     15190       1    2862    2921    2916     853
CTETRA     15191       1    1180    1181    1414     962
CTETRA     15192       1    4193    1410    1416    3017
CTETRA     15193       1    4142    4143    1369    3322
CTETRA     15194       1    4196    1179    1413    3018
CTETRA     15195       1    2766     963     961     877
CTETRA     15196       1    3010    3011    3016    1040
CTETRA     15197       1    1105     637     971     972
CTETRA     15198       1    3802    1361    2563    2567
CTETRA     15199       1    4140    1358    1373    3205
CTETRA     15200       1    3464    3465    1593     206
CTETRA     15201       1    4138    1370    1375    3257
CTETRA     15202       1    3205    3206    3323    1147
CTETRA     15203       1    1358    1362    1359    1147
CTETRA     15204       1    4140    4141    1358    3205
CTETRA     15205       1    4136    1381    3243    3244
CTETRA     15206       1    4139    1373    1370    3257
CTETRA     15207       1    3346    3347    1155     124
CTETRA     15208       1    1713     742     745     466
CTETRA     15209       1    3346    3829    3828     122
CTETRA     15210       1    4260    4302    3689    3828
CTETRA     15211       1    1300    1304    1303     303
CTETRA     15212       1    1446    1447    1450     955
CTETRA     15213       1    3785    2425    1449    2426
CTETRA     15214       1    2332    2425    2333    1089
CTETRA     15215       1    3697    3698    1303    2583
CTETRA     15216       1    3787    1332    1440    2332
CTETRA     15217       1    1681    1696     939     258
CTETRA     15218       1    3697    2583    1306    2609
CTETRA     15219       1    2333    1089    2462    1030
CTETRA     15220       1    1264    1265    1270     978
CTETRA     15221       1    3786    1440    1450    2332
CTETRA     15222       1    1267    2857    1268     977
CTETRA     15223       1    4229    4230    1269    2953
CTETRA     15224       1    3091     610    3133     478
CTETRA     15225       1    1454    2352    1460     300
CTETRA     15226       1    1458    1459    1464     301
CTETRA     15227       1    3190    3193    3191     301
CTETRA     15228       1    3190    3192    3193     301
CTETRA     15229       1    4221    1184    1229    3024
CTETRA     15230       1    1454    1456    2349     539
CTETRA     15231       1      26     205     459      30
CTETRA     15232       1    2364     479    2382     539
CTETRA     15233       1    2383     479     317     478
CTETRA     15234       1     318     317    1050     482
CTETRA     15235       1    1237     325    3024    1104
CTETRA     15236       1    1485    1498    1494     660
CTETRA     15237       1    4222    1256    1184    3032
CTETRA     15238       1    1183    1184    1256     770
CTETRA     15239       1    4085    2077    2158    3293
CTETRA     15240       1    1485    1486    1498     660
CTETRA     15241       1    3727    1232    1242    2729
CTETRA     15242       1    1226    1232    2702     504
CTETRA     15243       1     684     502     678     332
CTETRA     15244       1    3778    2393    1479    2411
CTETRA     15245       1    4183    3093    1457    3195
CTETRA     15246       1    3776    1485    1494    2410
CTETRA     15247       1    3146    3159    3162     799
CTETRA     15248       1    1479    1486    1485     864
CTETRA     15249       1    3779    1467    1473    2424
CTETRA     15250       1    3777    1479    1485    2411
CTETRA     15251       1    3022    3077    3065     502
CTETRA     15252       1    1236    3081    1237     325
CTETRA     15253       1    1902    1918    1917    1080
CTETRA     15254       1    3408     555     392     750
CTETRA     15255       1    3406    3407    1511     555
CTETRA     15256       1     393     630     437     315
CTETRA     15257       1    1232    1238    1242     332
CTETRA     15258       1    1842    1857     287     581
CTETRA     15259       1    1524     598     458     331
CTETRA     15260       1    3729    1226    2702    2710
CTETRA     15261       1    1838    1839     724     920
CTETRA     15262       1    1457     299    3195     483
CTETRA     15263       1    3021     625     501     790
CTETRA     15264       1    2967    2968    3057     622
CTETRA     15265       1    3744    1202    1201    2794
CTETRA     15266       1    3551    1656    1658     544
CTETRA     15267       1    3377    3378    1527     544
CTETRA     15268       1    1656    1657    1658     541
CTETRA     15269       1    1658     544     541     380
CTETRA     15270       1    2786    2793    2787     489
CTETRA     15271       1    3464    2287    3465     206
CTETRA     15272       1    3411    3557    3556    1640
CTETRA     15273       1    1168     886     246     251
CTETRA     15274       1    3980    3359    3358     886
CTETRA     15275       1    3979    3361    3360     584
CTETRA     15276       1    3488    1534    1688    1540
CTETRA     15277       1    3968    4261    4303    3337
CTETRA     15278       1    4303    3337    4261      98
CTETRA     15279       1    3424    1540     251     243
CTETRA     15280       1    2838     271    3219     272
CTETRA     15281       1    3978    3361    1625      61
CTETRA     15282       1    4114    4115    2150    2827
CTETRA     15283       1    3674    3675    1769    1039
CTETRA     15284       1    1886    1902    1901     389
CTETRA     15285       1    3582    3583      67      68
CTETRA     15286       1    3437    2269    2268     956
CTETRA     15287       1    4267    1632    1633      70
CTETRA     15288       1    3979    3359    1627     584
CTETRA     15289       1    1774     556      74     187
CTETRA     15290       1    3540    1644    1645     155
CTETRA     15291       1    1759    1775    1774      75
CTETRA     15292       1    4267    3583    3582      68
CTETRA     15293       1    1852    1853    1868     722
CTETRA     15294       1    3438    2268    2270     956
CTETRA     15295       1    4260     121    3348     122
CTETRA     15296       1     938     400     932     173
CTETRA     15297       1    1707    1723    1722    1095
CTETRA     15298       1    1643    1676     292     293
CTETRA     15299       1    3686    1029     574     536
CTETRA     15300       1    2158    2164    3285     146
CTETRA     15301       1    4084    4085    2158    3293
CTETRA     15302       1    1440    1441    1446    1030
CTETRA     15303       1    1658    1659    1660     788
CTETRA     15304       1    1695    1696    1711     256
CTETRA     15305       1    1679    1694     136     134
CTETRA     15306       1    3279    1069    3280    1121
CTETRA     15307       1    1701     115     114     117
CTETRA     15308       1    3351    1601    1634     909
CTETRA     15309       1    3484    1684    1533    1538
CTETRA     15310       1    1444    3277    1445    1090
CTETRA     15311       1    2116    2117    2121     908
CTETRA     15312       1    1684    1538    1685     744
CTETRA     15313       1    1679    1545     939     134
CTETRA     15314       1    3335     168    1161     938
CTETRA     15315       1    2094     228    2096     587
CTETRA     15316       1     704     185     182     162
CTETRA     15317       1    3262    3263    3264     794
CTETRA     15318       1    1742    1757     414     421
CTETRA     15319       1    3245    3246    3263     794
CTETRA     15320       1    1681     461    1697     258
$*
$* PROPERTY CARDS
$*
$*  Property: PSOLID1
PSOLID         1       1       0                           SMECH
$*
$* MATERIAL CARDS
$*
$*  Material: AISI_SS_304-Annealed::fem1::[1]
MAT1           11.9000+8        0.3000007.9000-61.6600-5
$*
$* LOAD AND CONSTRAINT CARDS
$*
$*  Constraint: Fixed(1)
SPC            1    1637  123456  0.0000
SPC            1    1638  123456  0.0000
SPC            1    1639  123456  0.0000
SPC            1    1640  123456  0.0000
SPC            1    1641  123456  0.0000
SPC            1    1642  123456  0.0000
SPC            1    1643  123456  0.0000
SPC            1    1644  123456  0.0000
SPC            1    1645  123456  0.0000
SPC            1    1646  123456  0.0000
SPC            1    1647  123456  0.0000
SPC            1    1648  123456  0.0000
SPC            1    1649  123456  0.0000
SPC            1    1650  123456  0.0000
SPC            1    1651  123456  0.0000
SPC            1    1652  123456  0.0000
SPC            1    1653  123456  0.0000
SPC            1    1654  123456  0.0000
SPC            1    1655  123456  0.0000
SPC            1    1656  123456  0.0000
SPC            1    1657  123456  0.0000
SPC            1    1658  123456  0.0000
SPC            1    1659  123456  0.0000
SPC            1    1660  123456  0.0000
SPC            1    1661  123456  0.0000
SPC            1    1662  123456  0.0000
SPC            1    1663  123456  0.0000
SPC            1    1664  123456  0.0000
SPC            1    1665  123456  0.0000
SPC            1    1666  123456  0.0000
SPC            1    1667  123456  0.0000
SPC            1    1668  123456  0.0000
SPC            1    1669  123456  0.0000
SPC            1    1670  123456  0.0000
SPC            1    1671  123456  0.0000
SPC            1    1672  123456  0.0000
SPC            1    1673  123456  0.0000
SPC            1    1674  123456  0.0000
SPC            1    1675  123456  0.0000
SPC            1    1676  123456  0.0000
SPC            1    1677  123456  0.0000
SPC            1    1678  123456  0.0000
SPC            1    3445  123456  0.0000
SPC            1    3446  123456  0.0000
SPC            1    3447  123456  0.0000
SPC            1    3448  123456  0.0000
SPC            1    3539  123456  0.0000
SPC            1    3540  123456  0.0000
SPC            1    3541  123456  0.0000
SPC            1    3542  123456  0.0000
SPC            1    3543  123456  0.0000
SPC            1    3544  123456  0.0000
SPC            1    3545  123456  0.0000
SPC            1    3546  123456  0.0000
SPC            1    3547  123456  0.0000
SPC            1    3548  123456  0.0000
SPC            1    3549  123456  0.0000
SPC            1    3550  123456  0.0000
SPC            1    3551  123456  0.0000
SPC            1    3552  123456  0.0000
SPC            1    3553  123456  0.0000
SPC            1    3554  123456  0.0000
SPC            1    3555  123456  0.0000
SPC            1    3556  123456  0.0000
SPC            1    3557  123456  0.0000
SPC            1    3558  123456  0.0000
SPC            1    3559  123456  0.0000
SPC            1    3560  123456  0.0000
SPC            1    3561  123456  0.0000
SPC            1    3562  123456  0.0000
SPC            1    3563  123456  0.0000
SPC            1    3564  123456  0.0000
SPC            1    3565  123456  0.0000
SPC            1    3566  123456  0.0000
SPC            1    3567  123456  0.0000
SPC            1    3568  123456  0.0000
SPC            1    3569  123456  0.0000
SPC            1    3570  123456  0.0000
SPC            1    3571  123456  0.0000
SPC            1    3572  123456  0.0000
SPC            1    3573  123456  0.0000
SPC            1    3574  123456  0.0000
SPC            1    3575  123456  0.0000
SPC            1    3576  123456  0.0000
SPC            1    3577  123456  0.0000
SPC            1    3578  123456  0.0000
SPC            1    3579  123456  0.0000
SPC            1    3580  123456  0.0000
SPC            1    4288  123456  0.0000
SPC            1    4289  123456  0.0000
SPC            1    4296  123456  0.0000
SPC            1    4297  123456  0.0000
$*  Load: Force(1)
FORCE          2    1679       0 4001.51  0.00001.000000  0.0000
FORCE          2    1680       0 3999.79  0.00001.000000  0.0000
FORCE          2    1681       0 3997.72  0.00001.000000  0.0000
FORCE          2    1682       0 3998.68  0.00001.000000  0.0000
FORCE          2    1683       0 4000.38  0.00001.000000  0.0000
FORCE          2    1684       0 4000.00  0.00001.000000  0.0000
FORCE          2    1685       0 4000.13  0.00001.000000  0.0000
FORCE          2    1686       0 4001.51  0.00001.000000  0.0000
FORCE          2    1687       0 4000.13  0.00001.000000  0.0000
FORCE          2    1688       0 3999.82  0.00001.000000  0.0000
FORCE          2    1689       0 4000.39  0.00001.000000  0.0000
FORCE          2    1690       0 3998.85  0.00001.000000  0.0000
FORCE          2    1691       0 3997.72  0.00001.000000  0.0000
FORCE          2    1692       0 3999.70  0.00001.000000  0.0000
FORCE          2    1693       0 4001.53  0.00001.000000  0.0000
FORCE          2    1694       0 4001.54  0.00001.000000  0.0000
FORCE          2    1695       0 3999.86  0.00001.000000  0.0000
FORCE          2    1696       0 3997.71  0.00001.000000  0.0000
FORCE          2    1697       0 3998.54  0.00001.000000  0.0000
FORCE          2    1698       0 4000.37  0.00001.000000  0.0000
FORCE          2    1699       0 4000.15  0.00001.000000  0.0000
FORCE          2    1700       0 4000.12  0.00001.000000  0.0000
FORCE          2    1701       0 4001.52  0.00001.000000  0.0000
FORCE          2    1702       0 4000.12  0.00001.000000  0.0000
FORCE          2    1703       0 3999.63  0.00001.000000  0.0000
FORCE          2    1704       0 4000.41  0.00001.000000  0.0000
FORCE          2    1705       0 3999.03  0.00001.000000  0.0000
FORCE          2    1706       0 3997.71  0.00001.000000  0.0000
FORCE          2    1707       0 3999.65  0.00001.000000  0.0000
FORCE          2    1708       0 4001.51  0.00001.000000  0.0000
FORCE          2    1709       0 4001.67  0.00001.000000  0.0000
FORCE          2    1710       0 3999.87  0.00001.000000  0.0000
FORCE          2    1711       0 3997.83  0.00001.000000  0.0000
FORCE          2    1712       0 3998.43  0.00001.000000  0.0000
FORCE          2    1713       0 4000.37  0.00001.000000  0.0000
FORCE          2    1714       0 4000.17  0.00001.000000  0.0000
FORCE          2    1715       0 4000.23  0.00001.000000  0.0000
FORCE          2    1716       0 4001.42  0.00001.000000  0.0000
FORCE          2    1717       0 4000.23  0.00001.000000  0.0000
FORCE          2    1718       0 3999.48  0.00001.000000  0.0000
FORCE          2    1719       0 4000.39  0.00001.000000  0.0000
FORCE          2    1720       0 3999.10  0.00001.000000  0.0000
FORCE          2    1721       0 3997.83  0.00001.000000  0.0000
FORCE          2    1722       0 3999.58  0.00001.000000  0.0000
FORCE          2    1723       0 4001.53  0.00001.000000  0.0000
FORCE          2    1724       0 4001.72  0.00001.000000  0.0000
FORCE          2    1725       0 3999.81  0.00001.000000  0.0000
FORCE          2    1726       0 3998.05  0.00001.000000  0.0000
FORCE          2    1727       0 3998.50  0.00001.000000  0.0000
FORCE          2    1728       0 4000.37  0.00001.000000  0.0000
FORCE          2    1729       0 3999.93  0.00001.000000  0.0000
FORCE          2    1730       0 4000.46  0.00001.000000  0.0000
FORCE          2    1731       0 4001.24  0.00001.000000  0.0000
FORCE          2    1732       0 4000.46  0.00001.000000  0.0000
FORCE          2    1733       0 3999.54  0.00001.000000  0.0000
FORCE          2    1734       0 4000.37  0.00001.000000  0.0000
FORCE          2    1735       0 3998.87  0.00001.000000  0.0000
FORCE          2    1736       0 3998.05  0.00001.000000  0.0000
FORCE          2    1737       0 3999.61  0.00001.000000  0.0000
FORCE          2    1738       0 3334.65  0.00001.000000  0.0000
FORCE          2    1739       0 4001.61  0.00001.000000  0.0000
FORCE          2    1740       0 3999.61  0.00001.000000  0.0000
FORCE          2    1741       0 3998.05  0.00001.000000  0.0000
FORCE          2    1742       0 3998.87  0.00001.000000  0.0000
FORCE          2    1743       0 4000.38  0.00001.000000  0.0000
FORCE          2    1744       0 3999.55  0.00001.000000  0.0000
FORCE          2    1745       0 4000.46  0.00001.000000  0.0000
FORCE          2    1746       0 4001.24  0.00001.000000  0.0000
FORCE          2    1747       0 4000.46  0.00001.000000  0.0000
FORCE          2    1748       0 3999.92  0.00001.000000  0.0000
FORCE          2    1749       0 4000.37  0.00001.000000  0.0000
FORCE          2    1750       0 3998.50  0.00001.000000  0.0000
FORCE          2    1751       0 3331.56  0.00001.000000  0.0000
FORCE          2    1752       0 3999.49  0.00001.000000  0.0000
FORCE          2    1753       0 4668.40  0.00001.000000  0.0000
FORCE          2    1754       0 4001.53  0.00001.000000  0.0000
FORCE          2    1755       0 3999.58  0.00001.000000  0.0000
FORCE          2    1756       0 3997.83  0.00001.000000  0.0000
FORCE          2    1757       0 3999.10  0.00001.000000  0.0000
FORCE          2    1758       0 4000.39  0.00001.000000  0.0000
FORCE          2    1759       0 3999.49  0.00001.000000  0.0000
FORCE          2    1760       0 4000.23  0.00001.000000  0.0000
FORCE          2    1761       0 4001.42  0.00001.000000  0.0000
FORCE          2    1762       0 3333.64  0.00001.000000  0.0000
FORCE          2    1763       0 3999.98  0.00001.000000  0.0000
FORCE          2    1764       0 4000.47  0.00001.000000  0.0000
FORCE          2    1765       0 3998.96  0.00001.000000  0.0000
FORCE          2    1766       0 4663.97  0.00001.000000  0.0000
FORCE          2    1767       0 3999.96  0.00001.000000  0.0000
FORCE          2    1768       0 4001.50  0.00001.000000  0.0000
FORCE          2    1769       0 4001.51  0.00001.000000  0.0000
FORCE          2    1770       0 3999.65  0.00001.000000  0.0000
FORCE          2    1771       0 3997.71  0.00001.000000  0.0000
FORCE          2    1772       0 3999.03  0.00001.000000  0.0000
FORCE          2    1773       0 4000.41  0.00001.000000  0.0000
FORCE          2    1774       0 3999.63  0.00001.000000  0.0000
FORCE          2    1775       0 4000.12  0.00001.000000  0.0000
FORCE          2    1776       0 4001.52  0.00001.000000  0.0000
FORCE          2    1777       0 4000.21  0.00001.000000  0.0000
FORCE          2    1778       0 4000.05  0.00001.000000  0.0000
FORCE          2    1779       0 4000.39  0.00001.000000  0.0000
FORCE          2    1780       0 3998.44  0.00001.000000  0.0000
FORCE          2    1781       0 3997.90  0.00001.000000  0.0000
FORCE          2    1782       0 3999.73  0.00001.000000  0.0000
FORCE          2    1783       0 4001.60  0.00001.000000  0.0000
FORCE          2    1784       0 4001.53  0.00001.000000  0.0000
FORCE          2    1785       0 3999.70  0.00001.000000  0.0000
FORCE          2    1786       0 3997.72  0.00001.000000  0.0000
FORCE          2    1787       0 3998.85  0.00001.000000  0.0000
FORCE          2    1788       0 4000.39  0.00001.000000  0.0000
FORCE          2    1789       0 3999.82  0.00001.000000  0.0000
FORCE          2    1790       0 4000.13  0.00001.000000  0.0000
FORCE          2    1791       0 3334.61  0.00001.000000  0.0000
FORCE          2    1792       0 4667.12  0.00001.000000  0.0000
FORCE          2    1793       0 3999.92  0.00001.000000  0.0000
FORCE          2    1794       0 4000.38  0.00001.000000  0.0000
FORCE          2    1795       0 3998.59  0.00001.000000  0.0000
FORCE          2    1796       0 3997.90  0.00001.000000  0.0000
FORCE          2    1797       0 3999.65  0.00001.000000  0.0000
FORCE          2    1798       0 4001.62  0.00001.000000  0.0000
FORCE          2    3479       0 2000.70  0.00001.000000  0.0000
FORCE          2    3480       0 1999.63  0.00001.000000  0.0000
FORCE          2    3481       0 1998.81  0.00001.000000  0.0000
FORCE          2    3482       0 1999.59  0.00001.000000  0.0000
FORCE          2    3483       0 2000.24  0.00001.000000  0.0000
FORCE          2    3484       0 1999.82  0.00001.000000  0.0000
FORCE          2    3485       0 2000.28  0.00001.000000  0.0000
FORCE          2    3486       0 2000.74  0.00001.000000  0.0000
FORCE          2    3487       0 1999.88  0.00001.000000  0.0000
FORCE          2    3488       0 2000.08  0.00001.000000  0.0000
FORCE          2    3489       0 2000.13  0.00001.000000  0.0000
FORCE          2    3490       0 1999.17  0.00001.000000  0.0000
FORCE          2    3491       0 1998.95  0.00001.000000  0.0000
FORCE          2    3492       0 2000.11  0.00001.000000  0.0000
FORCE          2    3493       0 2000.84  0.00001.000000  0.0000
FORCE          2    3494       0 2000.87  0.00001.000000  0.0000
FORCE          2    3495       0 2000.07  0.00001.000000  0.0000
FORCE          2    3496       0 1999.00  0.00001.000000  0.0000
FORCE          2    3497       0 1999.12  0.00001.000000  0.0000
FORCE          2    3498       0 2000.13  0.00001.000000  0.0000
FORCE          2    3499       0 2000.07  0.00001.000000  0.0000
FORCE          2    3500       0 1999.94  0.00001.000000  0.0000
FORCE          2    3501       0 2667.62  0.00001.000000  0.0000
FORCE          2    3502       0 1999.88  0.00001.000000  0.0000
FORCE          2    3503       0 2000.08  0.00001.000000  0.0000
FORCE          2    3504       0 2000.13  0.00001.000000  0.0000
FORCE          2    3505       0 1999.17  0.00001.000000  0.0000
FORCE          2    3506       0 1998.95  0.00001.000000  0.0000
FORCE          2    3507       0 2000.11  0.00001.000000  0.0000
FORCE          2    3508       0 2000.84  0.00001.000000  0.0000
FORCE          2    3673       0 4001.99  0.00001.000000  0.0000
FORCE          2    3674       0 4002.01  0.00001.000000  0.0000
FORCE          2    3675       0 4001.95  0.00001.000000  0.0000
FORCE          2    3676       0 4001.74  0.00001.000000  0.0000
FORCE          2    3677       0 4668.57  0.00001.000000  0.0000
FORCE          2    3678       0 4001.87  0.00001.000000  0.0000
FORCE          2    3679       0 4002.04  0.00001.000000  0.0000
FORCE          2    3680       0 4002.05  0.00001.000000  0.0000
FORCE          2    4292       0 2001.01  0.00001.000000  0.0000
FORCE          2    4293       0 1333.99  0.00001.000000  0.0000
ENDDATA
