$*$$$$$$$$$$$$$$$$$$$$$$$$$$$$$$$$$$$$$$$$$$$$$$$$$$$$$$$$$$$$$$$$$
$*
$*                    Simcenter v12.0.2.9 Translator
$*                    for NX Nastran version 12.2
$*
$*             FEM FILE: C:\Users\hp\Desktop\Prikmech\applied_mechanics\NX\fem2.fem
$*             SIM FILE: C:\Users\hp\Desktop\Prikmech\applied_mechanics\NX\sim2.sim
$*        ANALYSIS TYPE: Structural
$*        SOLUTION NAME: Solution 1
$*        SOLUTION TYPE: SOL 101 Linear Statics - Global Constraints
$*
$*    SOLVER INPUT FILE: sim2-solution_1.dat
$*        CREATION DATE: 19-Nov-2018
$*        CREATION TIME: 00:57:45
$*             HOSTNAME: LAPTOP-SO1DP5ME
$*      NASTRAN LICENSE: Desktop Bundle
$*
$*                UNITS: mm (milli-newton)
$*                      ... LENGTH : mm
$*                      ... TIME   : sec
$*                      ... MASS   : kilogram (kg)
$*                      ... TEMPERATURE : deg Celsius
$*                      ... FORCE  : milli-newton
$*                      ... THERMAL ENERGY : mN-mm (micro-joule)
$*
$* Важное замечание:
$*     Эта надпись сгенерирована в Simcenter и изменяет эти данные 
$*     информация может повлиять на обработку результатов в пре- и постпроцессоре
$*
$*$$$$$$$$$$$$$$$$$$$$$$$$$$$$$$$$$$$$$$$$$$$$$$$$$$$$$$$$$$$$$$$$$
$*
$*$$$$$$$$$$$$$$$$$$$$$$$$$$$$$$$$$$$
$*
$* FILE MANAGEMENT
$*
$*$$$$$$$$$$$$$$$$$$$$$$$$$$$$$$$$$$$
$*
$*
$*$$$$$$$$$$$$$$$$$$$$$$$$$$$$$$$$$$$
$*
$* EXECUTIVE CONTROL
$*
$*$$$$$$$$$$$$$$$$$$$$$$$$$$$$$$$$$$$
$*
ID,NASTRAN,sim2-solution_1
SOL 101
CEND
$*
$*$$$$$$$$$$$$$$$$$$$$$$$$$$$$$$$$$$$
$*
$* CASE CONTROL
$*
$*$$$$$$$$$$$$$$$$$$$$$$$$$$$$$$$$$$$
$*
ECHO = NONE
SPC = 1
OUTPUT
DISPLACEMENT(PLOT,REAL) = ALL
SPCFORCES(PLOT,REAL) = ALL
STRESS(PLOT,REAL,VONMISES,CENTER) = ALL
$*  Step: Subcase - Static Loads 1
SUBCASE 1
  LABEL = Subcase - Static Loads 1
  LOAD = 2
$*
$*$$$$$$$$$$$$$$$$$$$$$$$$$$$$$$$$$$$
$*
$* BULK DATA
$*
$*$$$$$$$$$$$$$$$$$$$$$$$$$$$$$$$$$$$
$*
BEGIN BULK
$*
$* PARAM CARDS
$*
PARAM      K6ROT100.0000
PARAM     OIBULK     YES
PARAM    OMACHPR     YES
PARAM       POST      -2
PARAM    POSTEXT     YES
PARAM    UNITSYS   MN-MM
$*
$* GRID CARDS
$*
GRID*                  1               0-1.623169746E-012.0736233671E+01+
*       5.7376110526E+00               0
GRID*                  2               05.4345475325E-011.9392087007E+01+
*       6.5419535981E+00               0
GRID*                  3               0-9.585731500E-012.0579513582E+01+
*       7.9139052737E+00               0
GRID*                  4               0-1.427112947E+001.9572593470E+01+
*       6.3409822972E+00               0
GRID*                  5               0-2.341067830E+002.0943552574E+01+
*       5.7561941595E+00               0
GRID*                  6               0-2.583371824E+002.0080116909E+01+
*       7.0317103424E+00               0
GRID*                  7               0-1.907714047E+002.2250032911E+01+
*       7.5399698236E+00               0
GRID*                  8               0-2.016118863E+002.6023301141E+01+
*       -5.721658696E+00               0
GRID*                  9               0-7.404744847E-012.5740092835E+01+
*       -5.130108413E+00               0
GRID*                 10               0-5.297599545E-012.4448349615E+01+
*       -6.314744446E+00               0
GRID*                 11               0-8.081489852E-022.5838425147E+01+
*       -6.391665510E+00               0
GRID*                 12               01.6529046744E+002.5555107273E+01+
*       -7.170876206E+00               0
GRID*                 13               0-3.906245887E-012.6662049377E+01+
*       -7.754422533E+00               0
GRID*                 14               0-2.399139506E-012.4921971108E+01+
*       -7.797959814E+00               0
GRID*                 15               04.7649326634E-012.6622799164E+01+
*       -5.893104757E+00               0
GRID*                 16               03.2247281253E-012.5331275581E+01+
*       -4.697691179E+00               0
GRID*                 17               0-2.994211218E+00-2.242879429E+01+
*       -1.109646828E+01               0
GRID*                 18               0-2.465691930E+00-2.102838877E+01+
*       -1.169386790E+01               0
GRID*                 19               01.8869988506E+002.5597524287E+01+
*       -5.397348036E+00               0
GRID*                 20               05.6060825953E-012.4550929212E+01+
*       -6.047032590E+00               0
GRID*                 21               0-1.590875569E+00-3.037361336E+01+
*       -1.117721309E+01               0
GRID*                 22               0-2.163964564E+00-2.990424759E+01+
*       -9.245214013E+00               0
GRID*                 23               0-6.275901199E-01-3.118133229E+01+
*       -8.847766358E+00               0
GRID*                 24               0-9.290659096E-01-2.848439434E+01+
*       -9.155391473E+00               0
GRID*                 25               0-4.313003077E+001.8654600109E+01+
*       9.3596287241E+00               0
GRID*                 26               0-4.187190302E+001.8854298876E+01+
*       1.0394508161E+01               0
GRID*                 27               03.3579446503E+00-2.477936741E+01+
*       8.9200012023E+00               0
GRID*                 28               03.5770129136E+00-2.592097468E+01+
*       7.8988032354E+00               0
GRID*                 29               05.5569549313E-01-2.876743420E+01+
*       -8.806955304E+00               0
GRID*                 30               0-3.102232132E+001.9519612338E+01+
*       1.0575624569E+01               0
GRID*                 31               0-4.321140169E+002.0415222114E+01+
*       9.9302804569E+00               0
GRID*                 32               0-4.933348643E+00-2.742791400E+01+
*       1.1119144322E+01               0
GRID*                 33               0-4.828594186E+00-2.790910770E+01+
*       9.3780616758E+00               0
GRID*                 34               0-4.402913942E+00-2.634149381E+01+
*       1.0173944168E+01               0
GRID*                 35               0-3.195952099E+00-2.801047573E+01+
*       1.0252345635E+01               0
GRID*                 36               0-3.422801337E+001.7948425485E+01+
*       1.0279543533E+01               0
GRID*                 37               0-4.015142894E+001.7117235244E+01+
*       9.3875713493E+00               0
GRID*                 38               02.2970653825E+00-1.859120881E+01+
*       -7.077309498E+00               0
GRID*                 39               02.1790514808E+00-1.956670300E+01+
*       -6.547443179E+00               0
GRID*                 40               01.1314965339E+00-1.903120646E+01+
*       -7.058450753E+00               0
GRID*                 41               01.7754753129E-01-2.145319008E+01+
*       -8.196125546E+00               0
GRID*                 42               0-2.037433139E-022.6850666238E+01+
*       -3.695331757E+00               0
GRID*                 43               0-4.098575050E-012.6321709473E+01+
*       -4.160255877E+00               0
GRID*                 44               0-1.884876976E-012.6666291634E+01+
*       -2.656814151E+00               0
GRID*                 45               02.8449115515E+002.5201340092E+01+
*       5.3586215068E+00               0
GRID*                 46               02.0583381912E+002.4101432561E+01+
*       6.0391023465E+00               0
GRID*                 47               05.1342016553E+00-2.282457124E+01+
*       1.0900835011E+01               0
GRID*                 48               05.3650550242E+00-2.424905371E+01+
*       1.0983628138E+01               0
GRID*                 49               0-5.136725179E+00-2.258497061E+01+
*       -1.084270479E+01               0
GRID*                 50               0-4.429408151E+00-2.439041438E+01+
*       -1.170910286E+01               0
GRID*                 51               0-4.225447396E+00-2.286162545E+01+
*       -1.157932630E+01               0
GRID*                 52               0-2.645932043E+002.8721640376E+01+
*       -1.091190268E+01               0
GRID*                 53               09.4994563053E-012.2176489785E+01+
*       5.5617405515E+00               0
GRID*                 54               03.8031420368E-012.2035401633E+01+
*       7.3069108196E+00               0
GRID*                 55               01.3816663551E+002.0973592072E+01+
*       5.6490693934E+00               0
GRID*                 56               01.9495925933E+002.1489855301E+01+
*       7.0331898215E+00               0
GRID*                 57               02.1492879885E+001.9545506951E+01+
*       8.7545660824E+00               0
GRID*                 58               06.1485163674E-012.0644884575E+01+
*       7.5115327471E+00               0
GRID*                 59               03.0253531110E+002.1686346451E+01+
*       8.9154967806E+00               0
GRID*                 60               0-2.596986819E+00-3.105170581E+01+
*       -7.438587375E+00               0
GRID*                 61               0-6.000676073E-01-2.930021914E+01+
*       -1.138475909E+01               0
GRID*                 62               07.8733073264E-01-2.921247920E+01+
*       -1.185005384E+01               0
GRID*                 63               01.8332142026E+001.9609372711E+01+
*       6.9772357578E+00               0
GRID*                 64               03.1488588596E+002.0702910284E+01+
*       6.7482670743E+00               0
GRID*                 65               0-3.021301116E+005.8784729676E+00+
*       -8.424430044E+00               0
GRID*                 66               01.1609696170E+002.3723948486E+01+
*       -2.433775117E+00               0
GRID*                 67               01.7444807326E+002.4363391453E+01+
*       -5.637088353E+00               0
GRID*                 68               01.7267218869E+002.4837653022E+01+
*       -4.157409838E+00               0
GRID*                 69               0-3.652455588E+004.6087440625E+00+
*       -9.848035589E+00               0
GRID*                 70               0-2.203579406E+002.4065955901E+01+
*       -5.542492149E+00               0
GRID*                 71               0-1.248514851E+002.4392278056E+01+
*       -5.226212611E+00               0
GRID*                 72               01.0002483522E+002.6159139352E+01+
*       -3.468503541E+00               0
GRID*                 73               0-4.143931457E-012.3500684681E+01+
*       -2.327510294E+00               0
GRID*                 74               0-1.140170963E+002.6108592827E+01+
*       -2.417875252E+00               0
GRID*                 75               01.3116332999E+002.2160404352E+01+
*       8.3913899902E+00               0
GRID*                 76               02.4536054822E+002.3025539255E+01+
*       5.4368127803E+00               0
GRID*                 77               02.7424046355E+002.2717101922E+01+
*       6.9727411081E+00               0
GRID*                 78               07.4400729143E-012.3320516799E+01+
*       5.8967956458E+00               0
GRID*                 79               03.4439907870E+00-2.503953480E+01+
*       1.0352880745E+01               0
GRID*                 80               02.5053728518E+00-9.385874487E+00+
*       -9.604919452E+00               0
GRID*                 81               02.7237628900E+00-8.127951517E+00+
*       -9.256708589E+00               0
GRID*                 82               0-4.884008624E+00-2.799892087E+01+
*       7.2679430547E+00               0
GRID*                 83               0-3.239888101E+00-2.713176684E+01+
*       7.2338320047E+00               0
GRID*                 84               0-3.256319096E+00-2.850533814E+01+
*       7.4346446271E+00               0
GRID*                 85               04.0754084278E+00-2.901058115E+01+
*       -1.052879693E+01               0
GRID*                 86               01.0979829839E+00-3.049598741E+01+
*       -1.012524503E+01               0
GRID*                 87               03.2350442635E+002.1580331967E+01+
*       5.7868416570E+00               0
GRID*                 88               0-2.038800789E+00-2.875434838E+01+
*       7.3003343614E+00               0
GRID*                 89               0-2.815415342E+00-2.861033475E+01+
*       5.6491863837E+00               0
GRID*                 90               0-1.355336641E+00-2.803280379E+01+
*       5.9391652388E+00               0
GRID*                 91               0-3.923007737E+00-2.912514434E+01+
*       -1.079581891E+01               0
GRID*                 92               0-4.941975961E+00-2.863087662E+01+
*       -9.899243165E+00               0
GRID*                 93               01.9386571286E+00-2.800549292E+01+
*       5.7663143216E+00               0
GRID*                 94               01.5525729748E+002.7045642255E+01+
*       -1.139223428E+01               0
GRID*                 95               04.0052021751E+002.8086955568E+01+
*       -1.101302370E+01               0
GRID*                 96               02.8084282480E+002.8840983734E+01+
*       -1.160824514E+01               0
GRID*                 97               02.4328304041E+002.9124415420E+01+
*       -9.944422222E+00               0
GRID*                 98               01.0776567688E+002.9292578247E+01+
*       -1.115926261E+01               0
GRID*                 99               04.3493790818E+002.9406985992E+01+
*       -1.033902388E+01               0
GRID*                100               03.1198243882E+003.0458842882E+01+
*       -1.071407843E+01               0
GRID*                101               0-9.748917225E-012.3690555770E+01+
*       1.1694895119E+00               0
GRID*                102               0-1.090916870E+002.3688953590E+01+
*       -7.226274532E-01               0
GRID*                103               0-8.577161581E-012.4537049719E+01+
*       1.7417949391E+00               0
GRID*                104               05.7851856020E-012.3932235372E+01+
*       4.8563265879E+00               0
GRID*                105               0-2.976737266E+001.6708126185E+00+
*       -8.841181738E+00               0
GRID*                106               05.2937758385E-012.1796278984E+01+
*       -1.096908043E+01               0
GRID*                107               0-6.216129005E-012.1762218295E+01+
*       -8.948646587E+00               0
GRID*                108               0-9.885921632E-021.9814965332E+01+
*       -9.091667218E+00               0
GRID*                109               05.4352006780E-012.1308004401E+01+
*       -8.343364994E+00               0
GRID*                110               02.9458974364E+002.4889271925E+01+
*       -5.323740932E+00               0
GRID*                111               04.1982292971E+002.5788831069E+01+
*       -5.673548997E+00               0
GRID*                112               05.9988302607E+002.6997279247E+01+
*       -8.957109718E+00               0
GRID*                113               03.8398782157E-012.3439968740E+01+
*       -3.625474398E+00               0
GRID*                114               04.6989407080E+002.6790373461E+01+
*       -1.128016733E+01               0
GRID*                115               02.2751996323E+002.5586266586E+01+
*       -1.112053504E+01               0
GRID*                116               03.8094005207E+002.8239328042E+01+
*       -8.856114850E+00               0
GRID*                117               01.3144534730E+002.7566828690E+01+
*       -9.297172713E+00               0
GRID*                118               01.8215638490E+002.8843502532E+01+
*       -7.474800046E+00               0
GRID*                119               0-4.284576996E+002.9125108804E+01+
*       -1.043312893E+01               0
GRID*                120               0-5.591165499E+002.8164186727E+01+
*       -9.960325532E+00               0
GRID*                121               0-5.516909020E+002.6822016961E+01+
*       -1.029339214E+01               0
GRID*                122               0-2.549274530E+00-2.862583529E+01+
*       1.1702755069E+01               0
GRID*                123               04.0871107921E+00-2.083369671E+01+
*       1.0179183940E+01               0
GRID*                124               04.6545630232E+00-2.185100818E+01+
*       1.1132386432E+01               0
GRID*                125               02.5845692230E+00-2.225636347E+01+
*       1.0468362740E+01               0
GRID*                126               05.1111455548E+00-2.212522845E+01+
*       9.0696746766E+00               0
GRID*                127               0-6.137565592E+00-2.677432180E+01+
*       -7.751418824E+00               0
GRID*                128               0-3.357047132E+00-2.708216754E+01+
*       -9.081166822E+00               0
GRID*                129               0-5.923168794E+00-2.554817794E+01+
*       -9.816652703E+00               0
GRID*                130               03.4792525342E+002.3971519827E+01+
*       -8.505271657E+00               0
GRID*                131               05.1907194748E+002.3927971965E+01+
*       -6.560048866E+00               0
GRID*                132               05.6290123487E+002.3929590373E+01+
*       -8.214677672E+00               0
GRID*                133               03.3890497509E+002.5795822250E+01+
*       -7.050254403E+00               0
GRID*                134               04.1975682966E+002.6009112163E+01+
*       -9.105461755E+00               0
GRID*                135               05.9231177072E-012.6446788377E+01+
*       2.3104580797E-02               0
GRID*                136               01.1238040975E+002.5098484270E+01+
*       -1.500496467E-01               0
GRID*                137               02.9973448553E+002.4230216556E+01+
*       -6.744257235E+00               0
GRID*                138               02.4078928714E+002.5826209709E+01+
*       -9.121891026E+00               0
GRID*                139               01.9382845986E+002.4093411525E+01+
*       -7.413705716E+00               0
GRID*                140               09.8548760083E-012.6396470587E+01+
*       -1.582449727E+00               0
GRID*                141               01.2945765534E+002.5046164637E+01+
*       -2.560919091E+00               0
GRID*                142               01.0800548830E+002.4706645714E+01+
*       -1.039266856E+00               0
GRID*                143               09.0648333536E-012.3662250505E+01+
*       -8.732643893E-01               0
GRID*                144               0-1.853501522E-012.4203567539E+01+
*       8.4936823859E-02               0
GRID*                145               07.7006942573E-012.3149883065E+01+
*       -5.735320194E+00               0
GRID*                146               03.5515817291E-012.3675670819E+01+
*       -5.081535989E+00               0
GRID*                147               05.8744990087E+002.2424571827E+01+
*       -8.597295117E+00               0
GRID*                148               04.4063286681E-012.4868802849E+01+
*       -1.160361745E+01               0
GRID*                149               01.1368905039E+002.3836031380E+01+
*       -1.091252158E+01               0
GRID*                150               05.1320863800E-012.5692813251E+01+
*       -9.724446512E+00               0
GRID*                151               06.2838034816E+002.3574108645E+01+
*       -1.021933757E+01               0
GRID*                152               0-1.099821045E+002.2560177120E+01+
*       -7.221546206E+00               0
GRID*                153               0-2.005786564E+002.4244699404E+01+
*       -7.243986417E+00               0
GRID*                154               0-7.636758132E-012.6416364334E+01+
*       -9.431358747E+00               0
GRID*                155               0-9.391708313E-012.4884041378E+01+
*       -9.419485209E+00               0
GRID*                156               0-8.045866321E-01-1.932494309E+01+
*       -1.105566091E+01               0
GRID*                157               0-1.632711111E-02-2.047565961E+01+
*       -9.614859216E+00               0
GRID*                158               05.0368133633E-01-1.932285065E+01+
*       -9.962399814E+00               0
GRID*                159               0-7.460898386E-01-1.932784373E+01+
*       -9.415084260E+00               0
GRID*                160               0-1.328250178E+00-1.834148997E+01+
*       -1.037667036E+01               0
GRID*                161               0-1.763423628E+00-1.847076599E+01+
*       -8.941812225E+00               0
GRID*                162               0-2.456902637E+00-1.953889267E+01+
*       -9.419621751E+00               0
GRID*                163               0-1.314264575E+00-2.051489941E+01+
*       -8.863831185E+00               0
GRID*                164               0-7.506875904E-01-1.818121639E+01+
*       -8.468443944E+00               0
GRID*                165               0-1.038648638E+00-2.000325197E+01+
*       -8.145199252E+00               0
GRID*                166               06.6061384865E-02-1.948008222E+01+
*       -8.028865706E+00               0
GRID*                167               04.0268416476E+00-1.094645891E+01+
*       9.7293084931E+00               0
GRID*                168               05.1018130467E+002.7792246881E+01+
*       1.0254356485E+01               0
GRID*                169               03.9388601646E+002.6205349757E+01+
*       1.1614926699E+01               0
GRID*                170               02.6444620648E+002.6975803839E+01+
*       9.5572731864E+00               0
GRID*                171               04.3257612751E+002.5628412000E+01+
*       9.6347384487E+00               0
GRID*                172               03.8153597921E+002.4342871985E+01+
*       1.1500775692E+01               0
GRID*                173               04.6368674269E+002.3229962968E+01+
*       9.5802152061E+00               0
GRID*                174               03.4300438042E+002.4888016481E+01+
*       8.7043979799E+00               0
GRID*                175               01.3346008186E+00-2.881460168E+01+
*       7.0907415677E+00               0
GRID*                176               02.0034673492E+00-2.942721334E+01+
*       6.1781423578E+00               0
GRID*                177               08.3524630679E-01-2.910307998E+01+
*       5.7002511386E+00               0
GRID*                178               0-3.761719897E-01-2.936146028E+01+
*       5.6645073692E+00               0
GRID*                179               03.8045992544E+00-7.894209594E+00+
*       9.8230582684E+00               0
GRID*                180               06.0055420088E+002.5005067878E+01+
*       1.0570016483E+01               0
GRID*                181               05.6349135939E+002.4273671407E+01+
*       9.1214506236E+00               0
GRID*                182               06.4198102395E+002.5204514649E+01+
*       -6.923016810E+00               0
GRID*                183               05.0375002596E+002.6907901901E+01+
*       -6.377392412E+00               0
GRID*                184               02.2735907923E+002.5285046938E+01+
*       1.1168112603E+01               0
GRID*                185               0-6.436857111E-022.8874336328E+00+
*       -8.997169299E+00               0
GRID*                186               06.3061222317E+002.3034347322E+01+
*       -7.054509762E+00               0
GRID*                187               0-3.025617485E+007.6736490509E+00+
*       -8.651067976E+00               0
GRID*                188               05.2350960183E+002.2593293716E+01+
*       -6.388181129E+00               0
GRID*                189               0-1.818341011E+003.9909229423E+00+
*       -8.459883778E+00               0
GRID*                190               0-5.683901434E+00-2.215478670E+01+
*       9.8800991158E+00               0
GRID*                191               04.6331350321E+002.1501390072E+01+
*       -8.251710496E+00               0
GRID*                192               03.6882922881E+002.1658222098E+01+
*       -9.327978219E+00               0
GRID*                193               03.5485111282E+002.2769985855E+01+
*       -7.412621552E+00               0
GRID*                194               0-3.787983724E+009.6912623126E+00+
*       -8.836373789E+00               0
GRID*                195               03.9434585600E+00-2.957310170E+01+
*       -6.953665976E+00               0
GRID*                196               02.7927172558E+00-3.001055310E+01+
*       -6.808996087E+00               0
GRID*                197               05.7132751307E+00-2.680615877E+01+
*       -1.065298316E+01               0
GRID*                198               03.8108910032E+002.3592829246E+01+
*       -5.645043585E+00               0
GRID*                199               02.0452480332E+00-2.815918320E+01+
*       -7.223788067E+00               0
GRID*                200               0-2.426262009E+00-1.871618954E+01+
*       7.0072823983E+00               0
GRID*                201               0-1.030758596E+00-1.839975171E+01+
*       7.2366696720E+00               0
GRID*                202               0-1.724394038E+00-1.802884638E+01+
*       8.6723445211E+00               0
GRID*                203               0-1.830903290E+00-1.947120578E+01+
*       8.0500311734E+00               0
GRID*                204               05.0554058288E+00-2.863789875E+01+
*       -7.231202213E+00               0
GRID*                205               02.0313799339E-01-3.039783341E+01+
*       -6.609028794E+00               0
GRID*                206               05.8112241615E-02-2.928900049E+01+
*       -5.578320377E+00               0
GRID*                207               05.3785738526E+00-2.379811378E+01+
*       -6.433237443E+00               0
GRID*                208               04.1158731178E+00-2.462774484E+01+
*       -5.736559835E+00               0
GRID*                209               03.7245370213E+00-2.255673892E+01+
*       -5.618725734E+00               0
GRID*                210               03.0642069354E+00-2.713424525E+01+
*       -7.220307926E+00               0
GRID*                211               0-1.815733081E-019.3241079637E+00+
*       8.6190472273E+00               0
GRID*                212               02.0656887968E+001.0034378501E+01+
*       8.5162220774E+00               0
GRID*                213               01.3162741098E-011.1033838277E+01+
*       9.2629937346E+00               0
GRID*                214               0-5.640915593E+002.3700662013E+01+
*       -7.050761115E+00               0
GRID*                215               0-3.458450739E+002.2650100433E+01+
*       -7.518855342E+00               0
GRID*                216               0-4.997953289E+002.3613465661E+01+
*       -9.308034844E+00               0
GRID*                217               0-3.422686834E+002.4817271960E+01+
*       -8.007006284E+00               0
GRID*                218               05.0700822054E-011.3392903147E+01+
*       9.0774682781E+00               0
GRID*                219               0-1.219840559E+001.1759407513E+01+
*       8.8012507257E+00               0
GRID*                220               01.7813127501E-021.5108379540E+01+
*       9.1632244179E+00               0
GRID*                221               0-2.641809099E+002.6554752366E+01+
*       -8.907462115E+00               0
GRID*                222               0-5.041067875E+002.6376143346E+01+
*       -8.296160735E+00               0
GRID*                223               0-4.133786092E+002.5284907109E+01+
*       -9.650353048E+00               0
GRID*                224               0-2.487893652E+002.4596409786E+01+
*       -9.437679767E+00               0
GRID*                225               0-2.558706946E+002.3011451570E+01+
*       -9.214692562E+00               0
GRID*                226               0-4.146758262E+002.4095997677E+01+
*       -6.004348439E+00               0
GRID*                227               0-2.245171362E+002.5496414708E+01+
*       -7.625340744E+00               0
GRID*                228               01.6582236183E+00-3.083452953E+01+
*       6.9001794050E+00               0
GRID*                229               03.0024528460E-01-3.005003106E+01+
*       7.0172672315E+00               0
GRID*                230               0-3.379811376E+002.7660651334E+01+
*       -7.533770869E+00               0
GRID*                231               0-4.366386759E+002.5943914414E+01+
*       -5.958563039E+00               0
GRID*                232               0-8.608245791E-012.9622314532E+01+
*       -1.015126119E+01               0
GRID*                233               0-8.359947222E-023.1223116927E+01+
*       -1.022695039E+01               0
GRID*                234               0-9.001995094E-013.1070769536E+01+
*       -8.611639442E+00               0
GRID*                235               08.4908583089E-012.9556121347E+01+
*       -8.709225682E+00               0
GRID*                236               03.3665300228E+003.0143914827E+01+
*       -8.602349373E+00               0
GRID*                237               01.9166837019E+003.0599789309E+01+
*       -7.285311772E+00               0
GRID*                238               01.5190889861E+003.1123424105E+01+
*       -1.038336251E+01               0
GRID*                239               01.2734483605E+003.1054639001E+01+
*       -8.737557979E+00               0
GRID*                240               01.5660766277E-012.8284581820E+01+
*       -8.202561615E+00               0
GRID*                241               0-7.804306754E-01-1.932887163E+01+
*       1.0983054934E+01               0
GRID*                242               0-4.344778485E-01-2.160657021E+01+
*       1.0172369392E+01               0
GRID*                243               0-1.633167872E+00-2.059394331E+01+
*       1.0183719101E+01               0
GRID*                244               0-1.391933035E-02-2.003896486E+01+
*       9.2277852616E+00               0
GRID*                245               06.3041590738E-01-2.155684188E+01+
*       9.2922854102E+00               0
GRID*                246               08.8911012840E-01-1.991134958E+01+
*       9.6790490783E+00               0
GRID*                247               07.3386672167E-01-2.014421508E+01+
*       8.5106718118E+00               0
GRID*                248               03.3089506774E-01-2.142322615E+01+
*       8.0909075809E+00               0
GRID*                249               0-1.022850069E+00-2.057038188E+01+
*       8.7865545297E+00               0
GRID*                250               0-1.217947411E+00-2.189348240E+01+
*       9.2183850687E+00               0
GRID*                251               0-1.441408353E+00-1.942543023E+01+
*       9.6232481448E+00               0
GRID*                252               0-1.849459583E+002.7026802471E+01+
*       1.0925245670E+01               0
GRID*                253               0-1.220055935E+002.9497832254E+01+
*       1.0650936122E+01               0
GRID*                254               01.5854147607E-012.7579023911E+01+
*       1.0198336581E+01               0
GRID*                255               0-1.896796575E+002.8926977562E+01+
*       9.5099484449E+00               0
GRID*                256               03.8744983050E+006.7689339065E+00+
*       7.9619164895E+00               0
GRID*                257               0-2.609523660E+002.8225792926E+01+
*       1.1682418234E+01               0
GRID*                258               0-3.643768756E+00-1.860588058E+00+
*       -8.944288289E+00               0
GRID*                259               04.5371149246E+00-2.022572354E+01+
*       -8.991901255E+00               0
GRID*                260               02.9924724867E+00-1.978377845E+01+
*       -9.352982591E+00               0
GRID*                261               04.1133139156E+00-1.888098914E+01+
*       -8.447285655E+00               0
GRID*                262               03.8075129018E+00-1.963759057E+01+
*       -1.000488237E+01               0
GRID*                263               03.8570286565E+00-9.835038678E+00+
*       -8.221367405E+00               0
GRID*                264               04.6140843948E-01-1.217310946E+01+
*       -9.144908986E+00               0
GRID*                265               06.0182610734E-01-1.010938640E+01+
*       -9.111791399E+00               0
GRID*                266               0-1.254796572E+00-1.114372105E+01+
*       -8.839302980E+00               0
GRID*                267               0-3.444478761E+003.0384594955E+01+
*       1.0305075911E+01               0
GRID*                268               0-3.011153461E+002.9483352121E+01+
*       8.4248591750E+00               0
GRID*                269               0-2.072053003E+003.0378666208E+01+
*       9.0202808003E+00               0
GRID*                270               0-1.459732949E+001.8959949640E+01+
*       1.0673098233E+01               0
GRID*                271               0-1.689407431E+001.7486460752E+01+
*       1.0217871057E+01               0
GRID*                272               0-1.483316819E+001.8547320317E+01+
*       8.9408234964E+00               0
GRID*                273               0-7.639142114E-011.8574038276E+01+
*       9.9733316253E+00               0
GRID*                274               02.4076205142E+002.2711280994E+01+
*       -5.318119300E+00               0
GRID*                275               01.7125866619E+002.2710762661E+01+
*       -6.881585853E+00               0
GRID*                276               01.3444812817E+001.9025820764E+01+
*       1.0052631511E+01               0
GRID*                277               03.6849316535E-011.8336117619E+01+
*       1.0332446388E+01               0
GRID*                278               07.3979904748E-012.0213528790E+01+
*       9.2496931572E+00               0
GRID*                279               01.2598098846E+001.8789995465E+01+
*       8.5020968937E+00               0
GRID*                280               04.0352479606E+002.3700741428E+01+
*       5.7753238099E+00               0
GRID*                281               03.8852841751E+002.2410803058E+01+
*       6.0024469644E+00               0
GRID*                282               04.2221806007E+001.9633429870E+01+
*       7.0732332033E+00               0
GRID*                283               04.4346575020E+002.1285504864E+01+
*       6.8505073480E+00               0
GRID*                284               03.8033088276E+002.9584071407E+01+
*       7.2651915198E+00               0
GRID*                285               03.6988693440E+003.0542108493E+01+
*       7.4866408201E+00               0
GRID*                286               02.7473733635E+002.9737884051E+01+
*       6.7655485935E+00               0
GRID*                287               0-3.743356689E+00-1.634497623E+01+
*       -9.637448514E+00               0
GRID*                288               0-5.129891700E-011.7836683614E+01+
*       8.8374719756E+00               0
GRID*                289               0-1.261136770E-011.8929034086E+01+
*       8.0712054764E+00               0
GRID*                290               0-1.244129463E+001.8822265735E+01+
*       7.5970931819E+00               0
GRID*                291               0-9.571271573E-011.9880414649E+01+
*       9.2874326187E+00               0
GRID*                292               01.3461396788E+002.4425558087E+01+
*       7.5842302626E+00               0
GRID*                293               0-1.579802851E-012.4921856858E+01+
*       6.3397612369E+00               0
GRID*                294               03.1937431897E-022.3482890860E+01+
*       8.0029330571E+00               0
GRID*                295               0-1.758229064E+002.3622458281E+01+
*       9.6429074381E+00               0
GRID*                296               0-1.615216657E+002.3936325000E+01+
*       7.6219903380E+00               0
GRID*                297               0-2.341883885E-012.4552425254E+01+
*       9.7046801916E+00               0
GRID*                298               01.2525448700E+00-2.177805476E+01+
*       1.0355216039E+01               0
GRID*                299               01.4509974484E+00-2.157112565E+01+
*       1.1739689496E+01               0
GRID*                300               03.5657414696E+00-2.036450773E+01+
*       1.1052951513E+01               0
GRID*                301               03.5870868789E+00-2.314239510E+01+
*       1.1631193708E+01               0
GRID*                302               0-1.339105970E+002.5664608149E+01+
*       7.4684206793E+00               0
GRID*                303               06.6421055046E-012.6400609543E+01+
*       7.3990430190E+00               0
GRID*                304               0-9.116444784E-012.2665915077E+01+
*       5.7672302533E+00               0
GRID*                305               0-6.895180690E-012.4588577222E+01+
*       4.7032543918E+00               0
GRID*                306               02.3723520282E+00-8.815612256E+00+
*       8.5766881666E+00               0
GRID*                307               02.7152377210E+00-6.712091576E+00+
*       8.5061728798E+00               0
GRID*                308               0-2.418274766E+002.8703438657E+01+
*       -5.600810118E+00               0
GRID*                309               0-3.026432224E+002.9367285382E+01+
*       -6.780298600E+00               0
GRID*                310               0-2.120876375E+002.4145106541E+01+
*       5.7605623826E+00               0
GRID*                311               03.8483792097E+009.9432510639E+00+
*       9.5864549506E+00               0
GRID*                312               01.7087515671E+002.5917088486E+01+
*       5.6266018759E+00               0
GRID*                313               01.1903375710E+002.5102020330E+01+
*       5.1313262799E+00               0
GRID*                314               0-3.343164929E+002.6260491318E+01+
*       -1.137397136E+01               0
GRID*                315               0-3.915422307E+002.7594821565E+01+
*       -9.263673578E+00               0
GRID*                316               0-1.847419620E+002.5042785679E+01+
*       -1.093860040E+01               0
GRID*                317               0-4.256097905E+002.3632798310E+01+
*       -1.171979604E+01               0
GRID*                318               0-6.130113386E+002.5344757018E+01+
*       -9.853972852E+00               0
GRID*                319               03.7677187878E+001.8670951710E+01+
*       -7.238402054E+00               0
GRID*                320               03.9056570458E+00-1.751357765E+01+
*       -1.014522672E+01               0
GRID*                321               0-3.431098928E+002.7819652689E+01+
*       5.9671673064E+00               0
GRID*                322               0-5.632966167E+002.6641689058E+01+
*       6.9751673182E+00               0
GRID*                323               0-4.428272527E+002.5863348694E+01+
*       5.9144297056E+00               0
GRID*                324               0-3.313910449E+002.6312661574E+01+
*       7.7782735080E+00               0
GRID*                325               0-2.028655967E+002.7246448278E+01+
*       9.1770784183E+00               0
GRID*                326               0-1.538143101E+002.7632022120E+01+
*       7.2248691403E+00               0
GRID*                327               0-5.562080463E+002.6578170363E+01+
*       8.7468946318E+00               0
GRID*                328               0-4.597973650E+002.5040266935E+01+
*       9.2766426299E+00               0
GRID*                329               0-3.881058629E+002.8059167501E+01+
*       8.2381567958E+00               0
GRID*                330               0-3.651777305E+002.6924560522E+01+
*       9.6385882418E+00               0
GRID*                331               03.9505427664E-01-1.819467628E+01+
*       -7.112572216E+00               0
GRID*                332               0-1.330530972E+00-1.832229958E+01+
*       -7.046050093E+00               0
GRID*                333               09.7225548985E-01-2.038733058E+01+
*       -7.563133501E+00               0
GRID*                334               09.7681409643E-01-1.969429951E+01+
*       -8.961005430E+00               0
GRID*                335               0-1.177291533E+00-1.929515922E+01+
*       -6.611927321E+00               0
GRID*                336               0-1.251832613E+00-2.039935543E+01+
*       -6.261580770E+00               0
GRID*                337               0-1.678750867E+002.4839486244E+01+
*       -1.360235738E-01               0
GRID*                338               0-1.818256783E+001.3282493598E+01+
*       -8.746537094E+00               0
GRID*                339               0-3.942985447E+001.4354285697E+01+
*       -8.038673859E+00               0
GRID*                340               0-3.433248004E+001.5507575483E+01+
*       -9.800396645E+00               0
GRID*                341               0-3.667310691E+001.3218204224E+01+
*       -9.580883107E+00               0
GRID*                342               02.4322525194E+00-2.117835228E+01+
*       -8.512466030E+00               0
GRID*                343               03.4962724862E+00-2.145517324E+01+
*       -9.270913062E+00               0
GRID*                344               02.7352661722E+00-2.281292367E+01+
*       -8.105730028E+00               0
GRID*                345               04.2649043116E+00-2.101208729E+01+
*       -7.339773223E+00               0
GRID*                346               03.9213049842E+00-2.055755069E+01+
*       -1.074348469E+01               0
GRID*                347               03.4601041920E+00-2.207793311E+01+
*       -1.041665548E+01               0
GRID*                348               05.1169285696E+00-2.172753122E+01+
*       -1.005962785E+01               0
GRID*                349               02.7369545837E+00-1.749282148E+01+
*       -7.775976986E+00               0
GRID*                350               03.8760385233E+00-1.662369241E+01+
*       -7.446738324E+00               0
GRID*                351               03.5335351468E+00-1.822232161E+01+
*       -7.345385837E+00               0
GRID*                352               03.4785926973E+00-2.310391836E+01+
*       -8.942969791E+00               0
GRID*                353               05.3848731900E+00-2.330778684E+01+
*       -1.111411787E+01               0
GRID*                354               03.4579136277E+00-2.348474889E+01+
*       -1.043712994E+01               0
GRID*                355               04.7321048149E+00-2.196464171E+01+
*       -1.116251981E+01               0
GRID*                356               05.6254890620E+002.1356994026E+01+
*       1.0236334391E+01               0
GRID*                357               02.0337550294E+00-1.745785915E+01+
*       -9.637098358E+00               0
GRID*                358               04.1847376763E+00-1.840917108E+01+
*       -9.515942661E+00               0
GRID*                359               04.0453012511E+00-1.750343899E+01+
*       -8.453757404E+00               0
GRID*                360               02.7166159804E+00-1.861846683E+01+
*       -8.835358706E+00               0
GRID*                361               02.7616448161E+00-1.858885378E+01+
*       -1.021999015E+01               0
GRID*                362               0-1.225837980E+002.7312001491E+01+
*       -5.515332398E+00               0
GRID*                363               06.1864021643E-012.3222120680E+01+
*       -7.352507508E+00               0
GRID*                364               0-1.087951478E+002.2641144027E+01+
*       -5.467236676E+00               0
GRID*                365               0-4.455694444E+002.1146623183E+01+
*       6.7352032030E+00               0
GRID*                366               0-3.612256775E+002.2997899974E+01+
*       5.6133967405E+00               0
GRID*                367               0-5.353457915E+002.3633905941E+01+
*       6.2328534845E+00               0
GRID*                368               0-5.907413559E+002.2055114088E+01+
*       1.0732017678E+01               0
GRID*                369               03.8738476864E+00-2.412868719E+01+
*       8.2707029560E+00               0
GRID*                370               05.3101537298E+002.2453963830E+01+
*       -1.039106661E+01               0
GRID*                371               03.2348631627E+003.0190619090E+01+
*       -7.068236218E+00               0
GRID*                372               0-6.159415634E+002.3450234500E+01+
*       1.0115537033E+01               0
GRID*                373               04.0497627760E+00-2.458380900E+01+
*       1.1800726082E+01               0
GRID*                374               0-1.297239707E+002.8795148461E+01+
*       -8.169680681E+00               0
GRID*                375               0-1.880930254E+002.7074784370E+01+
*       -7.219872539E+00               0
GRID*                376               03.1255247447E+00-2.997516657E+01+
*       9.4128642410E+00               0
GRID*                377               0-8.889698309E-012.8231655237E+01+
*       -6.909169136E+00               0
GRID*                378               0-3.651810019E+002.9219670036E+01+
*       -8.667006157E+00               0
GRID*                379               03.4012015655E+002.3400526216E+01+
*       -1.129142898E+01               0
GRID*                380               03.8305833256E-011.8089153081E+01+
*       7.3314701558E+00               0
GRID*                381               02.3255783188E+001.9979212840E+01+
*       -9.127569493E+00               0
GRID*                382               01.7964115367E+001.9992542316E+01+
*       -1.054433022E+01               0
GRID*                383               02.0650871678E+002.2395845587E+01+
*       -9.210259663E+00               0
GRID*                384               0-1.697512970E-012.3170396538E+01+
*       -9.203260933E+00               0
GRID*                385               03.5786797755E+002.1000936223E+01+
*       -1.089344834E+01               0
GRID*                386               03.2859574387E+009.8268631853E+00+
*       -9.234841823E+00               0
GRID*                387               02.0527395467E+002.1552122143E+01+
*       -1.160430975E+01               0
GRID*                388               01.3001955030E+002.4424106294E+01+
*       -8.764702853E+00               0
GRID*                389               01.0796713370E-02-2.834378147E+01+
*       -1.029675830E+01               0
GRID*                390               01.2049520584E+00-3.065588102E+01+
*       -6.536524638E+00               0
GRID*                391               02.3025452915E+00-1.956145824E+01+
*       -1.081606562E+01               0
GRID*                392               03.7596672648E+001.2766230065E+01+
*       -9.610196443E+00               0
GRID*                393               09.4808158436E-021.9437899360E+01+
*       -6.938502354E+00               0
GRID*                394               01.8501533556E+001.9232175285E+01+
*       -7.910083844E+00               0
GRID*                395               0-3.913019252E+00-1.765096836E+01+
*       9.7517278857E+00               0
GRID*                396               01.7520916622E+001.9624444225E+01+
*       -6.656367521E+00               0
GRID*                397               01.6313525886E+001.8151738248E+01+
*       -7.083667921E+00               0
GRID*                398               02.0269854604E+001.8250978179E+01+
*       -8.510474976E+00               0
GRID*                399               08.8147163226E-011.8261982265E+01+
*       -8.822793125E+00               0
GRID*                400               0-3.226323376E+00-1.613296604E+01+
*       9.6977966549E+00               0
GRID*                401               01.2979663873E+001.8956464002E+01+
*       -9.883467910E+00               0
GRID*                402               0-2.507364951E+001.6185368206E+01+
*       7.5140932592E+00               0
GRID*                403               0-2.102055879E+001.4163549537E+01+
*       8.1670326776E+00               0
GRID*                404               0-3.641149133E+001.5582803374E+01+
*       9.6583307816E+00               0
GRID*                405               0-4.198092946E+001.5545306667E+01+
*       8.1202592520E+00               0
GRID*                406               07.3790550711E-011.8197810288E+01+
*       -7.112334917E+00               0
GRID*                407               0-4.256223601E-011.8103950020E+01+
*       -8.506281548E+00               0
GRID*                408               04.0538511314E-011.9557825221E+01+
*       1.0923744456E+01               0
GRID*                409               0-3.860366389E+001.9023917660E+01+
*       7.4803260312E+00               0
GRID*                410               0-5.405327107E+002.5312998678E+01+
*       1.1201497239E+01               0
GRID*                411               0-4.545010560E+002.3442134840E+01+
*       1.1638682132E+01               0
GRID*                412               0-6.073440165E+002.4251058951E+01+
*       1.0885472522E+01               0
GRID*                413               0-5.562403628E+002.1328027161E+01+
*       9.9358554312E+00               0
GRID*                414               05.5486573206E+002.5381389736E+01+
*       -1.096646242E+01               0
GRID*                415               0-3.590644960E+00-9.789767491E+00+
*       9.1893732351E+00               0
GRID*                416               0-4.021324781E+00-8.749583775E+00+
*       7.7870959173E+00               0
GRID*                417               0-4.150391997E+00-7.030003702E+00+
*       7.8271436445E+00               0
GRID*                418               0-3.590241105E+00-8.083947306E+00+
*       9.4322096421E+00               0
GRID*                419               02.1847356547E+001.5224081585E+01+
*       -7.738275538E+00               0
GRID*                420               01.6876086780E+001.2522200296E+01+
*       -9.103161721E+00               0
GRID*                421               03.9369390722E+001.5069845316E+01+
*       -9.950407483E+00               0
GRID*                422               03.1965393742E+001.3745018207E+01+
*       -7.954168319E+00               0
GRID*                423               02.9475674139E+001.7647193462E+01+
*       -1.027849703E+01               0
GRID*                424               03.9004207721E+001.8412574142E+01+
*       -9.768745997E+00               0
GRID*                425               03.2790587900E+001.8765045261E+01+
*       -8.719494882E+00               0
GRID*                426               03.5040740980E+001.6862360541E+01+
*       -8.313764610E+00               0
GRID*                427               02.5772997525E+001.8651194555E+01+
*       -7.087439962E+00               0
GRID*                428               0-1.919317864E+00-1.952774739E+01+
*       6.6347119069E+00               0
GRID*                429               0-1.350466602E+00-1.800673176E+01+
*       1.0106576054E+01               0
GRID*                430               09.6186876231E-02-1.868844173E+01+
*       1.0571643952E+01               0
GRID*                431               0-4.114309910E+00-1.716244286E+01+
*       8.4253207323E+00               0
GRID*                432               03.4100610610E+002.0017439409E+01+
*       -7.379325113E+00               0
GRID*                433               03.5477288263E+001.6266222382E+01+
*       -1.006882302E+01               0
GRID*                434               03.5505018036E+002.7138272409E+01+
*       5.6693705844E+00               0
GRID*                435               05.1385720432E+002.8646667224E+01+
*       7.0310911403E+00               0
GRID*                436               02.5375986276E+002.8089982585E+01+
*       7.4434505190E+00               0
GRID*                437               03.8321933287E+002.6326646043E+01+
*       7.8077295697E+00               0
GRID*                438               04.2765350471E+002.9224163035E+01+
*       9.9817751395E+00               0
GRID*                439               05.3669547309E+002.6679484408E+01+
*       8.8834230512E+00               0
GRID*                440               03.6979415879E+002.4311809302E+01+
*       7.2971499213E+00               0
GRID*                441               02.2481537782E+002.5642934527E+01+
*       6.9470719647E+00               0
GRID*                442               0-4.019423045E+00-3.868553070E+00+
*       7.9549688320E+00               0
GRID*                443               05.7737117488E+002.5056459849E+01+
*       7.0962997381E+00               0
GRID*                444               02.3049032013E+001.5304363135E+01+
*       -9.832330658E+00               0
GRID*                445               01.7368526828E+001.6703608585E+01+
*       -9.186195374E+00               0
GRID*                446               01.9880590535E-011.6691244319E+01+
*       -9.570434489E+00               0
GRID*                447               06.5941464696E-011.4408297090E+01+
*       -9.760611454E+00               0
GRID*                448               02.0006498213E+002.7600887381E+01+
*       -6.143635339E+00               0
GRID*                449               01.9685172407E+002.7045763627E+01+
*       -7.780655950E+00               0
GRID*                450               03.6663498397E-012.8659358801E+01+
*       -6.091622044E+00               0
GRID*                451               03.6449293330E+002.7652231116E+01+
*       -7.408896983E+00               0
GRID*                452               01.7536847098E+002.9468874670E+01+
*       -5.788980867E+00               0
GRID*                453               04.6715482275E+002.9417604457E+01+
*       -7.177886094E+00               0
GRID*                454               01.2757568650E+002.6127082534E+01+
*       4.0796575767E+00               0
GRID*                455               01.1892716233E+002.5158683578E+01+
*       3.8758234822E+00               0
GRID*                456               09.6646674555E-012.6277930877E+01+
*       2.4983139611E+00               0
GRID*                457               01.7387760647E+002.5612750059E+01+
*       3.1577969872E+00               0
GRID*                458               02.3211684445E+00-1.480485073E+01+
*       -1.003999495E+01               0
GRID*                459               02.4867949443E+00-1.316161094E+01+
*       -8.601482473E+00               0
GRID*                460               09.0256143076E-01-1.550707464E+01+
*       -9.659127065E+00               0
GRID*                461               06.9317257547E-01-1.409186271E+01+
*       -8.557497560E+00               0
GRID*                462               08.2486376737E-01-1.684764928E+01+
*       -7.968133909E+00               0
GRID*                463               0-3.291494628E-012.6530128588E+01+
*       3.7631904773E+00               0
GRID*                464               04.3434549823E-012.5035836283E+01+
*       2.6687591892E+00               0
GRID*                465               0-9.936213733E-01-1.732992500E+01+
*       -9.983247257E+00               0
GRID*                466               04.3056500406E-01-1.689475986E+01+
*       -9.992160042E+00               0
GRID*                467               0-1.086392261E+00-1.704819857E+01+
*       -7.436268036E+00               0
GRID*                468               01.5247540107E+002.4630658397E+01+
*       2.3442629591E+00               0
GRID*                469               0-1.364034240E+002.5892029088E+01+
*       -3.237132311E+00               0
GRID*                470               03.3609182396E+008.0237499910E+00+
*       -9.327166668E+00               0
GRID*                471               0-3.233836513E-018.4714560849E-01+
*       -8.404925388E+00               0
GRID*                472               0-1.391883108E+00-1.781378342E+00+
*       -8.669231709E+00               0
GRID*                473               0-3.396990631E+00-4.296037818E+00+
*       -9.184685819E+00               0
GRID*                474               0-1.068592475E+00-3.552173693E+00+
*       -8.970559264E+00               0
GRID*                475               03.5600830015E+00-7.008750031E+00+
*       -7.934732332E+00               0
GRID*                476               0-5.628611898E+002.2159472336E+01+
*       7.5706116801E+00               0
GRID*                477               03.3206270126E-021.6750636411E+01+
*       7.5635898285E+00               0
GRID*                478               01.7271420845E+001.8469612230E+01+
*       7.2949288912E+00               0
GRID*                479               0-2.098112580E-012.5319030579E+01+
*       -1.292484428E+00               0
GRID*                480               0-1.652065563E-012.6734110070E+01+
*       -6.810391185E-01               0
GRID*                481               05.9342645782E+002.2994460343E+01+
*       1.0451734924E+01               0
GRID*                482               03.2732002781E+00-2.596856255E+01+
*       1.1679915571E+01               0
GRID*                483               0-2.805320559E-012.5198428436E+01+
*       -3.000497873E+00               0
GRID*                484               04.0827516112E+00-1.871266052E+01+
*       7.8404954522E+00               0
GRID*                485               04.0728650074E+00-1.953564483E+01+
*       6.9231964631E+00               0
GRID*                486               02.5412139184E+00-1.969763297E+01+
*       6.7363683285E+00               0
GRID*                487               03.4023439316E+00-1.939293736E+01+
*       8.1221931507E+00               0
GRID*                488               03.5341146306E+00-2.045316690E+01+
*       6.7788636782E+00               0
GRID*                489               04.5266177854E+00-2.025046490E+01+
*       8.3926858835E+00               0
GRID*                490               02.7747119180E+001.7927670532E+01+
*       8.8232390485E+00               0
GRID*                491               04.7312350259E+00-2.121026689E+01+
*       7.5740020761E+00               0
GRID*                492               02.8960962716E+002.0067013197E+01+
*       7.6782488200E+00               0
GRID*                493               0-2.993416080E+00-2.018034648E+01+
*       1.0957095306E+01               0
GRID*                494               0-2.411409077E+00-2.101019471E+01+
*       1.1745736954E+01               0
GRID*                495               0-3.526942645E+00-2.114589511E+01+
*       1.1148551542E+01               0
GRID*                496               0-2.007822546E+00-2.184777276E+01+
*       1.0389376033E+01               0
GRID*                497               05.9305576075E+002.6984453513E+01+
*       1.0310727949E+01               0
GRID*                498               0-2.151939839E+00-2.251416966E+01+
*       9.8892030184E+00               0
GRID*                499               0-2.535876359E+00-2.077081029E+01+
*       9.2040915383E+00               0
GRID*                500               0-2.683771029E+00-2.256833926E+01+
*       1.1332177905E+01               0
GRID*                501               0-3.601769262E+00-2.184007818E+01+
*       9.5724056764E+00               0
GRID*                502               0-1.355729705E+00-2.165076437E+01+
*       1.1469571512E+01               0
GRID*                503               0-4.584953287E+002.1529001407E+01+
*       8.8835074148E+00               0
GRID*                504               0-3.398265858E+002.1991401338E+01+
*       7.2991316736E+00               0
GRID*                505               0-3.554699585E+002.2973629840E+01+
*       8.9595156883E+00               0
GRID*                506               0-2.176384915E+002.1755501375E+01+
*       9.4487347020E+00               0
GRID*                507               06.9578111333E-012.9862405587E+01+
*       -6.705792186E+00               0
GRID*                508               02.3655511604E+001.8578281298E+01+
*       1.0409633322E+01               0
GRID*                509               02.0468252772E+001.9689283375E+01+
*       1.0845352903E+01               0
GRID*                510               0-7.155637677E-012.9373562651E+01+
*       -5.834684777E+00               0
GRID*                511               02.7239185788E+00-2.103439239E+01+
*       1.1444903854E+01               0
GRID*                512               03.3651249744E+00-2.269997383E+01+
*       -1.180359482E+01               0
GRID*                513               0-5.024247509E+002.7803561582E+01+
*       1.0158383127E+01               0
GRID*                514               0-5.535935012E+002.8187883460E+01+
*       7.4058805118E+00               0
GRID*                515               0-4.291875919E+002.9274009407E+01+
*       1.0359243358E+01               0
GRID*                516               03.4376284205E+00-2.333816517E+01+
*       6.9864717658E+00               0
GRID*                517               02.5434265065E+00-2.267492255E+01+
*       6.5225333361E+00               0
GRID*                518               02.5141820484E+00-2.119921994E+01+
*       5.8958981134E+00               0
GRID*                519               0-2.175129961E+003.0668253818E+01+
*       6.8444160536E+00               0
GRID*                520               0-6.044546592E-013.1126558122E+01+
*       7.0165069521E+00               0
GRID*                521               0-8.924535899E-012.4410730733E+01+
*       -3.920626491E+00               0
GRID*                522               0-1.518293433E+002.4223680629E+01+
*       -2.835175733E+00               0
GRID*                523               0-1.676386188E+002.5264133764E+01+
*       -4.146777922E+00               0
GRID*                524               0-1.834332914E+001.7728890480E+01+
*       -7.371889077E+00               0
GRID*                525               03.7364035443E+00-1.296643012E+01+
*       7.6838304895E+00               0
GRID*                526               03.8192385805E+00-1.080846605E+01+
*       7.8594967211E+00               0
GRID*                527               0-4.414619036E+00-2.194684249E+01+
*       1.1045562352E+01               0
GRID*                528               0-3.789947255E+00-2.253667899E+01+
*       1.1903181099E+01               0
GRID*                529               0-5.072214183E+00-2.084469670E+01+
*       9.7443419930E+00               0
GRID*                530               0-3.902984951E+00-1.989761905E+01+
*       1.0431873795E+01               0
GRID*                531               03.8496815911E+001.7038040312E+01+
*       7.3569623288E+00               0
GRID*                532               03.7838902946E+001.5159441358E+01+
*       7.9193645814E+00               0
GRID*                533               03.9122802459E+00-1.722945643E+01+
*       7.4158530158E+00               0
GRID*                534               03.5737495908E+00-2.404112345E+00+
*       -8.280164659E+00               0
GRID*                535               01.3907302970E+00-2.375354647E+00+
*       -9.224404128E+00               0
GRID*                536               03.6732256567E+00-8.307521832E-01+
*       -9.100711175E+00               0
GRID*                537               03.9986395499E+00-1.089945370E+01+
*       -9.671587460E+00               0
GRID*                538               02.7569184886E+00-1.774387239E+01+
*       8.2198450158E+00               0
GRID*                539               02.7043473431E+00-1.849837194E+01+
*       8.9616138022E+00               0
GRID*                540               02.4680142636E+00-1.865911098E+01+
*       8.1052372559E+00               0
GRID*                541               03.4438661975E+00-1.950604223E+01+
*       9.1983657663E+00               0
GRID*                542               04.0126083528E+00-1.788054919E+01+
*       8.8476133192E+00               0
GRID*                543               03.5141713979E+00-1.487488110E+01+
*       -7.996599888E+00               0
GRID*                544               09.6762469543E-013.1054289041E+01+
*       6.9657734475E+00               0
GRID*                545               03.6931166659E-012.3532618727E+01+
*       2.9300127320E+00               0
GRID*                546               0-1.701019397E+003.1103436886E+01+
*       -1.036133307E+01               0
GRID*                547               0-3.143244835E+003.0286079650E+01+
*       -1.063115606E+01               0
GRID*                548               08.5225079722E-012.0544880685E+01+
*       -5.918727185E+00               0
GRID*                549               0-8.624339877E-012.0576196153E+01+
*       -7.278948779E+00               0
GRID*                550               0-6.599947409E-012.9689042581E+01+
*       5.6935967450E+00               0
GRID*                551               0-1.937002284E+002.9425177561E+01+
*       7.1766991549E+00               0
GRID*                552               0-2.747203697E-012.8725437956E+01+
*       6.8200909484E+00               0
GRID*                553               0-4.690465000E-01-2.835040677E+01+
*       9.4657644080E+00               0
GRID*                554               06.9678312131E-01-2.843699744E+01+
*       1.0320795514E+01               0
GRID*                555               0-8.947246668E-01-2.860821532E+01+
*       1.0478411750E+01               0
GRID*                556               0-3.287338109E-02-3.029673469E+01+
*       1.0920463910E+01               0
GRID*                557               01.5518293009E+00-3.098582743E+01+
*       1.0647596941E+01               0
GRID*                558               0-2.192743730E+002.5995107077E+01+
*       6.0181381487E+00               0
GRID*                559               0-1.358366032E+001.9038132726E+01+
*       -8.390321330E+00               0
GRID*                560               08.9470022716E-01-2.047851748E+01+
*       5.8977397751E+00               0
GRID*                561               02.2162975034E+00-2.254430533E+01+
*       8.0751693399E+00               0
GRID*                562               0-7.937575082E-02-1.825853373E+01+
*       7.2139006272E+00               0
GRID*                563               0-4.203149671E-01-1.947918493E+01+
*       6.5102538846E+00               0
GRID*                564               0-7.173923566E-01-1.977646893E+01+
*       8.0564973955E+00               0
GRID*                565               07.5820711459E-02-2.134427748E+01+
*       1.1778572483E+01               0
GRID*                566               0-8.438883513E-012.0669636586E+01+
*       -5.622533073E+00               0
GRID*                567               0-1.495517546E+001.9257340057E+01+
*       -7.216489151E+00               0
GRID*                568               02.0421774365E+002.8932472468E+01+
*       5.6225838126E+00               0
GRID*                569               0-2.356651434E+001.9751447709E+01+
*       -6.690111646E+00               0
GRID*                570               0-7.763420514E-011.7972044336E+01+
*       -7.142231469E+00               0
GRID*                571               04.1369058989E+00-2.711839018E+01+
*       -5.701985362E+00               0
GRID*                572               04.2654005172E+00-2.573645283E+01+
*       -5.974521884E+00               0
GRID*                573               0-3.884658063E+001.8236173433E+01+
*       -7.279038637E+00               0
GRID*                574               0-2.244429261E+00-2.270304475E+01+
*       -9.300734408E+00               0
GRID*                575               0-1.003344373E+00-2.176361354E+01+
*       -9.452717813E+00               0
GRID*                576               0-1.792399752E+00-2.234814525E+01+
*       -1.082964054E+01               0
GRID*                577               0-5.760183262E+00-2.389991693E+01+
*       -9.233604866E+00               0
GRID*                578               0-5.495026688E+00-2.408253183E+01+
*       -1.097871378E+01               0
GRID*                579               0-3.689002634E+00-2.423534901E+01+
*       -9.231413987E+00               0
GRID*                580               03.3997265434E+001.1684717898E+01+
*       -8.440447639E+00               0
GRID*                581               0-4.184794466E+00-2.495137601E+01+
*       -1.014539300E+01               0
GRID*                582               0-5.578506653E+00-2.523682939E+01+
*       -1.112664551E+01               0
GRID*                583               0-4.519731479E+00-2.070125474E+01+
*       -1.069811102E+01               0
GRID*                584               0-4.908126964E+00-2.191766352E+01+
*       -9.666237864E+00               0
GRID*                585               0-3.297499579E+00-2.294602096E+01+
*       -8.575695714E+00               0
GRID*                586               0-2.761455186E+001.7654612992E+01+
*       7.7089571273E+00               0
GRID*                587               0-3.994844378E+001.7543050019E+01+
*       7.7441571724E+00               0
GRID*                588               04.3066687011E+002.2945301565E+01+
*       7.7488226986E+00               0
GRID*                589               05.8773235127E+002.2743440448E+01+
*       8.7501155521E+00               0
GRID*                590               04.3613820443E+002.2282896270E+01+
*       1.1019746025E+01               0
GRID*                591               05.6755832053E+002.2003431326E+01+
*       7.0495973268E+00               0
GRID*                592               0-4.553325022E+002.1228664808E+01+
*       -6.772257160E+00               0
GRID*                593               0-1.020477752E+002.4310262833E+01+
*       3.4485262388E+00               0
GRID*                594               0-2.217149626E-012.3380598688E+01+
*       4.1073509036E+00               0
GRID*                595               09.0274148085E-012.3840934504E+01+
*       3.7987198017E+00               0
GRID*                596               0-4.812774977E-01-2.166184994E+01+
*       -7.291965433E+00               0
GRID*                597               0-2.334273816E+00-2.074043671E+01+
*       -7.350134876E+00               0
GRID*                598               0-1.178189415E+00-2.048161607E+01+
*       -1.005408484E+01               0
GRID*                599               0-6.674222042E-02-1.961401660E+01+
*       -6.476250583E+00               0
GRID*                600               0-2.634173348E+00-1.932801451E+01+
*       -8.039277957E+00               0
GRID*                601               0-2.193761874E+00-1.941699688E+01+
*       -6.885278595E+00               0
GRID*                602               0-3.316928478E+00-2.364698847E+01+
*       -1.178663517E+01               0
GRID*                603               02.9408091388E+00-2.872226958E+01+
*       1.1640881649E+01               0
GRID*                604               02.5982993958E+00-2.713780493E+01+
*       1.1105235748E+01               0
GRID*                605               01.2485588231E+00-2.852620552E+01+
*       1.1829670501E+01               0
GRID*                606               0-4.462274489E+00-2.464773886E+01+
*       1.1650616181E+01               0
GRID*                607               0-5.712753144E+00-2.353580928E+01+
*       1.0134794431E+01               0
GRID*                608               0-5.690574333E+00-2.350891006E+01+
*       8.1472091308E+00               0
GRID*                609               0-6.388883235E+00-2.503097429E+01+
*       1.0434396511E+01               0
GRID*                610               0-4.413731939E+00-2.601597108E+01+
*       1.1706349013E+01               0
GRID*                611               0-4.729619339E+00-2.471344049E+01+
*       1.0036347042E+01               0
GRID*                612               0-3.364544203E+00-2.747313584E+01+
*       5.9478803179E+00               0
GRID*                613               04.9648217692E+002.1618140100E+01+
*       8.7618317731E+00               0
GRID*                614               05.8711776936E+002.3395806365E+01+
*       7.2450774131E+00               0
GRID*                615               0-3.122811524E+00-1.799528911E+01+
*       7.3602431989E+00               0
GRID*                616               0-4.102282420E+00-1.893663175E+01+
*       7.7021777695E+00               0
GRID*                617               04.3393575161E+00-2.323480175E+01+
*       -1.194244494E+01               0
GRID*                618               0-2.251934790E+00-1.741755422E+01+
*       7.3565100326E+00               0
GRID*                619               0-2.980721170E+00-1.643810741E+01+
*       7.7028901896E+00               0
GRID*                620               0-3.738910722E+00-1.701347492E+01+
*       7.1933514709E+00               0
GRID*                621               0-3.606881706E+00-1.516399488E+01+
*       7.6233423766E+00               0
GRID*                622               03.9794221336E+001.7069964144E+01+
*       9.9546977613E+00               0
GRID*                623               0-1.858210692E+00-7.019430176E-01+
*       8.8428922572E+00               0
GRID*                624               0-3.853753791E+00-1.332966112E+00+
*       7.8305227720E+00               0
GRID*                625               01.6544252615E+00-2.060148260E+01+
*       7.3526306374E+00               0
GRID*                626               02.6199901231E+00-2.003071030E+01+
*       8.1080385649E+00               0
GRID*                627               01.5247476845E+00-1.903294274E+01+
*       7.6804300109E+00               0
GRID*                628               01.8689967619E+00-1.760640260E+01+
*       7.4156985807E+00               0
GRID*                629               08.0163710907E-01-1.837844597E+01+
*       7.3138684748E+00               0
GRID*                630               02.4889841631E+00-1.871378686E+01+
*       7.2392752484E+00               0
GRID*                631               06.9732436248E-01-1.915168692E+01+
*       6.7089692033E+00               0
GRID*                632               03.8876289763E+00-1.844736657E+01+
*       9.8023953731E+00               0
GRID*                633               03.9825407508E+00-1.958210746E+01+
*       1.0545187600E+01               0
GRID*                634               0-3.901246823E+00-1.409191101E+01+
*       9.7504305052E+00               0
GRID*                635               03.5332002338E+001.5178311239E+01+
*       9.9117793418E+00               0
GRID*                636               0-1.559463139E+00-1.413415300E+01+
*       7.6272887376E+00               0
GRID*                637               02.5081212403E+00-1.879421283E+01+
*       1.0436338009E+01               0
GRID*                638               02.4735332189E+00-1.986923770E+01+
*       1.0752726462E+01               0
GRID*                639               0-2.574779792E+001.9971717308E+01+
*       8.8626494357E+00               0
GRID*                640               0-3.201770432E-022.1714740510E+01+
*       9.1544374445E+00               0
GRID*                641               05.8550878198E+00-2.690308579E+01+
*       -6.839273136E+00               0
GRID*                642               03.6034094572E+00-6.853131431E+00+
*       -9.684157588E+00               0
GRID*                643               01.7492851494E+00-1.862258334E+01+
*       -1.021242987E+01               0
GRID*                644               01.9994365687E+00-1.983826329E+01+
*       -9.440749752E+00               0
GRID*                645               01.5949596694E+00-1.829424328E+01+
*       -8.472859694E+00               0
GRID*                646               05.6225244151E+00-2.607174280E+01+
*       -9.368618484E+00               0
GRID*                647               0-2.321147544E+003.0996762799E+01+
*       -7.084614084E+00               0
GRID*                648               07.8341068975E-01-1.836741991E+01+
*       -8.559620073E+00               0
GRID*                649               01.1901228740E+00-2.043345075E+01+
*       -9.982440216E+00               0
GRID*                650               03.9289709549E+00-5.835164500E+00+
*       9.3286211237E+00               0
GRID*                651               01.9023009826E+00-5.145761134E+00+
*       8.6365492987E+00               0
GRID*                652               02.4918682435E+00-2.110931697E+01+
*       -1.006239483E+01               0
GRID*                653               03.7579349323E+00-7.874717462E+00+
*       7.6429185334E+00               0
GRID*                654               02.3224605806E+00-2.137441006E+01+
*       -1.159869355E+01               0
GRID*                655               02.1713497424E+00-2.230445169E+01+
*       -9.470139553E+00               0
GRID*                656               01.8735768558E+00-2.230573224E+01+
*       -1.073983581E+01               0
GRID*                657               03.9031227078E+00-4.783164920E+00+
*       7.6960530478E+00               0
GRID*                658               0-2.694301032E+00-1.442390355E+01+
*       9.6015074011E+00               0
GRID*                659               0-3.942912592E+00-2.012661708E+01+
*       -8.974679995E+00               0
GRID*                660               0-2.537434561E+00-2.115332230E+01+
*       -8.958373137E+00               0
GRID*                661               0-3.315988449E+00-2.139456260E+01+
*       -7.431409043E+00               0
GRID*                662               0-3.190856502E+00-2.333933638E+01+
*       -7.168060777E+00               0
GRID*                663               0-4.962578615E+00-2.148445678E+01+
*       -8.563586759E+00               0
GRID*                664               0-2.952754873E+00-2.011356728E+01+
*       -6.845947958E+00               0
GRID*                665               0-3.223879337E+00-2.099461284E+01+
*       -6.084235357E+00               0
GRID*                666               0-4.297147124E+00-2.038065292E+01+
*       -7.328941376E+00               0
GRID*                667               0-4.679827323E+00-2.199730696E+01+
*       -6.734642564E+00               0
GRID*                668               0-2.821749586E+00-2.250243171E+01+
*       -5.795398886E+00               0
GRID*                669               0-1.887073392E+00-2.217531682E+01+
*       -7.496802948E+00               0
GRID*                670               02.4285742552E+001.8647955931E+01+
*       -1.040007802E+01               0
GRID*                671               03.6198658706E+001.9322426189E+01+
*       -1.052789805E+01               0
GRID*                672               0-3.196191594E+001.1531137710E+01+
*       -8.817252484E+00               0
GRID*                673               0-5.347052667E+00-2.285758136E+01+
*       1.1076760489E+01               0
GRID*                674               01.3126149989E-011.2470982920E+01+
*       -8.428177445E+00               0
GRID*                675               06.8386723819E-011.0395519454E+01+
*       -9.527472364E+00               0
GRID*                676               05.3208170707E-015.2317340485E+00+
*       -9.265254650E+00               0
GRID*                677               01.0655809117E+002.3822683863E+01+
*       5.1034581832E-01               0
GRID*                678               01.1175660951E+002.5514817100E+01+
*       1.1442358662E+00               0
GRID*                679               02.7689157727E-012.3365036319E+01+
*       1.7398216844E+00               0
GRID*                680               0-1.245928800E+006.5835318794E+00+
*       -8.776156301E+00               0
GRID*                681               07.1232770304E-016.9668541486E+00+
*       -9.028301537E+00               0
GRID*                682               06.2930460669E-011.7577130094E+01+
*       8.4040495637E+00               0
GRID*                683               06.9872315437E-011.6330832143E+01+
*       9.9093261512E+00               0
GRID*                684               0-5.242884871E-011.7087546277E+01+
*       1.0314008353E+01               0
GRID*                685               01.7210764449E+001.7678052916E+01+
*       9.9962939544E+00               0
GRID*                686               01.8268379026E+001.7448128989E+01+
*       7.6784856624E+00               0
GRID*                687               0-1.149251182E+001.6323760091E+01+
*       9.6967681080E+00               0
GRID*                688               02.1005804763E+002.6480249352E-01+
*       -8.718102198E+00               0
GRID*                689               01.2818654328E+00-5.892452499E+00+
*       -8.728710969E+00               0
GRID*                690               02.9718143447E+00-4.339787474E+00+
*       -8.829804312E+00               0
GRID*                691               0-1.066103811E+00-7.149149717E+00+
*       -8.269891773E+00               0
GRID*                692               0-1.480555015E+00-9.165035714E+00+
*       -8.809719322E+00               0
GRID*                693               07.7528966961E-01-8.029470049E+00+
*       -8.558288388E+00               0
GRID*                694               0-3.987175850E+001.8551805851E+01+
*       -9.886397221E+00               0
GRID*                695               0-1.564485335E+001.7915307717E+01+
*       -1.014338898E+01               0
GRID*                696               0-3.049066138E+001.7267983936E+01+
*       -9.674192719E+00               0
GRID*                697               01.1846571327E+001.6050371288E+01+
*       7.9560261953E+00               0
GRID*                698               0-4.131644575E+00-2.020108808E+01+
*       8.6278728260E+00               0
GRID*                699               0-3.339285539E+00-1.957872036E+01+
*       7.7878512421E+00               0
GRID*                700               0-4.151592522E+00-1.887711164E+01+
*       9.3749293281E+00               0
GRID*                701               0-2.698751801E+00-1.842803457E+01+
*       8.6932805436E+00               0
GRID*                702               03.0765897325E+00-3.018567561E+01+
*       6.6596494315E+00               0
GRID*                703               02.1231041738E+00-3.061319510E+01+
*       7.8674721088E+00               0
GRID*                704               0-1.408531449E+00-3.089975828E+01+
*       9.9676316836E+00               0
GRID*                705               0-6.388897688E+002.5667670720E+01+
*       1.0032871067E+01               0
GRID*                706               0-5.539163985E+002.3673709193E+01+
*       7.7493515887E+00               0
GRID*                707               0-4.193954102E+001.9778197086E+01+
*       8.1182890084E+00               0
GRID*                708               01.7835858453E+00-2.774311672E+01+
*       1.0455488775E+01               0
GRID*                709               01.6106803045E+002.4126221652E+01+
*       1.1441577418E+01               0
GRID*                710               01.7859217809E+002.2151105523E+01+
*       1.0742346780E+01               0
GRID*                711               0-2.085670468E+002.0619796169E+01+
*       1.1360896298E+01               0
GRID*                712               03.0144006314E+00-2.647179847E+01+
*       -1.149940412E+01               0
GRID*                713               0-4.729222247E-01-2.948187845E+01+
*       1.1781980064E+01               0
GRID*                714               02.8750569884E+001.8937339270E+01+
*       6.9885220474E+00               0
GRID*                715               0-3.373470249E+00-2.379464433E+01+
*       8.0833459842E+00               0
GRID*                716               0-3.205140346E+00-2.356526753E+01+
*       6.9769678987E+00               0
GRID*                717               0-3.187935389E+00-2.536324257E+01+
*       6.8410259699E+00               0
GRID*                718               0-3.237642766E+001.8572386736E+01+
*       8.8684918587E+00               0
GRID*                719               0-6.042734252E+00-2.523663854E+01+
*       6.6894801577E+00               0
GRID*                720               0-1.372414152E+009.5618429401E+00+
*       -9.151195159E+00               0
GRID*                721               07.5009672931E-018.5546261517E+00+
*       -8.981379641E+00               0
GRID*                722               02.4687857718E+00-1.770284663E+01+
*       1.0184079558E+01               0
GRID*                723               05.6977757617E-01-1.719021393E+01+
*       7.4704816649E+00               0
GRID*                724               01.9376281467E+00-1.687060884E+01+
*       7.3280218140E+00               0
GRID*                725               01.5440160513E+00-1.723469289E+01+
*       8.7886805807E+00               0
GRID*                726               01.7195300785E+00-2.057438592E+01+
*       8.7927957895E+00               0
GRID*                727               02.0481246669E+00-1.971791044E+01+
*       9.5039009570E+00               0
GRID*                728               03.4756150994E+00-1.720246375E+01+
*       9.7206620218E+00               0
GRID*                729               03.8129744423E+00-2.457247917E+01+
*       -1.160293561E+01               0
GRID*                730               0-3.420021882E-01-2.836380140E+01+
*       7.1952614536E+00               0
GRID*                731               03.0293796427E+00-1.009890001E+01+
*       8.7474288426E+00               0
GRID*                732               0-2.024333558E+00-1.620980316E+01+
*       7.9029619673E+00               0
GRID*                733               0-5.824197953E-01-1.668022677E+01+
*       8.2126341861E+00               0
GRID*                734               05.1768812021E-01-1.525217773E+01+
*       7.8051975680E+00               0
GRID*                735               0-9.911263369E-012.6117045366E+01+
*       1.1542275692E+00               0
GRID*                736               04.6607690414E+00-2.603840416E+01+
*       -1.173226155E+01               0
GRID*                737               03.9718298860E+00-2.771099160E+01+
*       -8.964980373E+00               0
GRID*                738               03.1896826226E+00-2.904057497E+01+
*       -8.005450354E+00               0
GRID*                739               03.1732131514E+00-3.008671883E+01+
*       -9.150930793E+00               0
GRID*                740               0-1.270391276E+00-3.044044982E+01+
*       7.9600777749E+00               0
GRID*                741               0-2.091436614E+00-2.875542374E+01+
*       9.6656124133E+00               0
GRID*                742               0-1.671392778E+00-2.769738707E+01+
*       9.3369451989E+00               0
GRID*                743               0-7.337719774E-01-2.870572079E+01+
*       8.2350748874E+00               0
GRID*                744               0-2.705761858E+00-2.724221004E+01+
*       9.3143093644E+00               0
GRID*                745               0-3.175557109E+00-2.978734787E+01+
*       9.2392579574E+00               0
GRID*                746               0-1.779018429E+00-2.766884656E+01+
*       1.0885619902E+01               0
GRID*                747               05.1545972918E-012.3168492747E+01+
*       1.1706595668E+01               0
GRID*                748               05.4831568969E-012.3148734232E+01+
*       9.9017685604E+00               0
GRID*                749               0-1.322566329E+002.2722386724E+01+
*       1.1623465682E+01               0
GRID*                750               01.5517915951E+002.5353218472E+01+
*       9.7071126602E+00               0
GRID*                751               0-7.534135115E-022.6458850720E+01+
*       9.4310580329E+00               0
GRID*                752               0-2.056016335E+002.5206093564E+01+
*       9.4452557535E+00               0
GRID*                753               0-1.942192559E+002.4571472092E+01+
*       1.1642980155E+01               0
GRID*                754               0-1.013790823E+002.6409855353E+01+
*       1.1582502656E+01               0
GRID*                755               0-1.274678553E+00-2.195404108E+01+
*       -8.345827710E+00               0
GRID*                756               0-3.062105156E+00-2.015241800E+01+
*       -1.086684801E+01               0
GRID*                757               0-3.421128475E+00-2.178204754E+01+
*       -1.000566986E+01               0
GRID*                758               0-2.004941303E+00-2.120139161E+01+
*       -1.016853201E+01               0
GRID*                759               02.4134962782E-01-2.155501009E+01+
*       -9.162374446E+00               0
GRID*                760               0-3.892689373E+00-2.513454036E+01+
*       8.2911748757E+00               0
GRID*                761               0-3.986099976E+00-2.477137976E+01+
*       9.4419146316E+00               0
GRID*                762               0-5.889570704E+00-2.638783540E+01+
*       7.7594973825E+00               0
GRID*                763               03.8583866379E+00-1.548606395E+01+
*       9.7369163599E+00               0
GRID*                764               0-2.835721556E+00-2.218425715E+01+
*       7.9417764806E+00               0
GRID*                765               0-4.368331825E+00-2.188536693E+01+
*       6.5257017068E+00               0
GRID*                766               0-5.130852812E+00-2.294374475E+01+
*       6.5322176135E+00               0
GRID*                767               0-5.093280796E+00-2.170664419E+01+
*       7.8002284885E+00               0
GRID*                768               0-5.831200086E+00-2.676982870E+01+
*       1.0301722636E+01               0
GRID*                769               0-2.631614686E+00-2.270465695E+01+
*       6.3843200061E+00               0
GRID*                770               0-2.417380870E+00-2.118131795E+01+
*       5.7049911807E+00               0
GRID*                771               0-3.435964716E+00-2.233347878E+01+
*       5.6152659555E+00               0
GRID*                772               03.5017452285E+00-2.852652856E+01+
*       -5.854958769E+00               0
GRID*                773               02.4838399117E+00-2.740231542E+01+
*       -5.797691083E+00               0
GRID*                774               0-3.182518310E+00-2.629180361E+01+
*       -1.029221044E+01               0
GRID*                775               0-3.479939117E+00-2.723046368E+01+
*       -1.181442890E+01               0
GRID*                776               0-3.554487488E+00-2.993876381E+01+
*       -8.365302003E+00               0
GRID*                777               03.9408891137E+002.0001527574E+01+
*       -9.214486818E+00               0
GRID*                778               0-1.773124693E+002.5114425413E+01+
*       3.8476534433E+00               0
GRID*                779               05.7193428249E-022.5871343165E+01+
*       4.8646912882E+00               0
GRID*                780               0-1.142629199E+002.5922407031E+01+
*       4.9489780053E+00               0
GRID*                781               0-3.127368660E+009.1541324097E+00+
*       8.5579271058E+00               0
GRID*                782               0-3.896344391E+009.9365652422E+00+
*       9.7906824749E+00               0
GRID*                783               0-3.217143845E+00-1.932609651E+01+
*       1.0017633652E+01               0
GRID*                784               04.1528240819E-01-3.097371279E+01+
*       9.5744235101E+00               0
GRID*                785               0-2.247703776E+00-2.090915097E+01+
*       7.3439366827E+00               0
GRID*                786               03.5553361620E+00-2.472791561E+01+
*       -8.246822626E+00               0
GRID*                787               03.4796192874E+00-2.502598332E+01+
*       -6.947909165E+00               0
GRID*                788               04.2492305410E+00-2.622291688E+01+
*       -7.568988648E+00               0
GRID*                789               04.7585276376E+00-2.528756867E+01+
*       -7.401561788E+00               0
GRID*                790               0-4.354870267E+00-2.907221963E+01+
*       -6.700592496E+00               0
GRID*                791               03.0774687986E+001.8248428735E+01+
*       7.5061599471E+00               0
GRID*                792               0-2.934406970E+00-1.991260774E+01+
*       6.5118118549E+00               0
GRID*                793               02.7771004807E+00-3.030039147E+01+
*       1.0826894680E+01               0
GRID*                794               02.2591118089E+00-2.938610268E+01+
*       1.0280320895E+01               0
GRID*                795               03.4155568287E+00-2.825242445E+01+
*       1.0453284677E+01               0
GRID*                796               08.1897540821E-01-2.046428670E+01+
*       -1.149053236E+01               0
GRID*                797               01.0021797758E-01-2.129138892E+01+
*       -1.178370499E+01               0
GRID*                798               03.8052831961E+00-2.744608494E+01+
*       1.1846469520E+01               0
GRID*                799               05.1320034772E+00-2.806063490E+01+
*       1.0778212385E+01               0
GRID*                800               03.0883683889E+00-2.672076146E+01+
*       1.0213298845E+01               0
GRID*                801               0-5.411127861E-01-1.530541948E+01+
*       9.7926822472E+00               0
GRID*                802               04.6767692347E+00-2.899911904E+01+
*       1.0599563548E+01               0
GRID*                803               04.3758187729E+00-2.764108458E+01+
*       9.0910092943E+00               0
GRID*                804               0-1.698120385E+00-1.712631455E+01+
*       9.8331894163E+00               0
GRID*                805               02.7260688218E+00-2.725102459E+01+
*       9.3044710452E+00               0
GRID*                806               02.7811949476E+001.6401150092E+01+
*       7.9416630301E+00               0
GRID*                807               0-4.224618915E+00-2.633427608E+01+
*       7.2352784396E+00               0
GRID*                808               0-4.519508680E+00-2.494262770E+01+
*       7.1684749203E+00               0
GRID*                809               0-5.382500484E+00-2.691082471E+01+
*       6.4349277296E+00               0
GRID*                810               0-3.223066960E+00-2.610960669E+01+
*       8.3063097843E+00               0
GRID*                811               0-4.364932394E+00-2.650470073E+01+
*       5.7636867355E+00               0
GRID*                812               0-2.319043286E+007.7126280654E+00+
*       8.8445801501E+00               0
GRID*                813               0-2.215880981E+005.8191319283E+00+
*       9.4298017219E+00               0
GRID*                814               0-3.800968213E+006.9664052708E+00+
*       1.0062435548E+01               0
GRID*                815               0-4.028656829E+006.7794617584E+00+
*       7.6107660784E+00               0
GRID*                816               01.3782395658E+00-2.820427987E+01+
*       9.3380475588E+00               0
GRID*                817               05.0295891507E-01-2.962608121E+01+
*       8.3673835085E+00               0
GRID*                818               02.9986521405E+00-2.861059412E+01+
*       7.4984870693E+00               0
GRID*                819               02.4261622277E+00-2.145141078E+01+
*       -5.524367100E+00               0
GRID*                820               03.4778404571E+00-2.044882740E+01+
*       -6.460061623E+00               0
GRID*                821               02.8445002299E+00-2.877995601E+01+
*       -1.179972456E+01               0
GRID*                822               03.6747739840E+00-2.749745542E+01+
*       -1.157637810E+01               0
GRID*                823               01.9286381326E+00-2.786565970E+01+
*       -1.165834260E+01               0
GRID*                824               01.1372346352E-01-3.090176016E+01+
*       -7.857231382E+00               0
GRID*                825               0-3.187168103E+00-2.486738310E+01+
*       1.0648546404E+01               0
GRID*                826               0-3.175959102E+00-2.337388725E+01+
*       1.0523443121E+01               0
GRID*                827               0-3.470372774E+00-2.337597950E+01+
*       9.1584465891E+00               0
GRID*                828               0-4.079745394E+001.0232263008E+00+
*       9.3096252527E+00               0
GRID*                829               0-3.982751023E+003.8370257586E-01+
*       7.8195529656E+00               0
GRID*                830               0-4.238711041E+002.8264628755E+00+
*       8.1571809407E+00               0
GRID*                831               0-3.822236695E+00-1.205763730E+01+
*       9.6092195532E+00               0
GRID*                832               01.9206399518E-012.5618937630E+01+
*       1.1584023619E+01               0
GRID*                833               0-2.325711484E-012.8499445032E+01+
*       8.5995068955E+00               0
GRID*                834               01.8823229056E+00-1.222967154E+01+
*       8.8986354541E+00               0
GRID*                835               09.0237025902E-02-1.119937945E+01+
*       8.9617218559E+00               0
GRID*                836               03.3440168706E+001.8237551434E+01+
*       9.8921206202E+00               0
GRID*                837               02.5607050447E+001.7121472087E+01+
*       9.8286402970E+00               0
GRID*                838               01.7179202137E+002.6875610663E+01+
*       1.1316713981E+01               0
GRID*                839               03.8511876128E+001.2895495852E+01+
*       9.7140396290E+00               0
GRID*                840               02.5440381379E+001.4199706302E+01+
*       8.3156443010E+00               0
GRID*                841               0-3.832464862E+00-2.065989496E+01+
*       7.2128776508E+00               0
GRID*                842               0-3.161516246E+00-9.977698193E+00+
*       -9.087609284E+00               0
GRID*                843               0-2.357242416E+001.8592586013E+01+
*       1.0076116532E+01               0
GRID*                844               0-4.595893106E-012.1022197445E+01+
*       1.1653078425E+01               0
GRID*                845               0-3.339302954E+00-6.152807982E+00+
*       -9.042510337E+00               0
GRID*                846               0-3.336180136E+002.5919844172E+01+
*       1.1660394731E+01               0
GRID*                847               0-3.151554911E+002.3961666973E+01+
*       1.1220133721E+01               0
GRID*                848               0-3.289697927E+00-8.076451848E+00+
*       -8.912055306E+00               0
GRID*                849               0-6.353588679E+002.5116875880E+01+
*       7.2336144146E+00               0
GRID*                850               0-3.208043061E+002.5317049654E+01+
*       5.4816682974E+00               0
GRID*                851               0-5.903663062E+002.2424224610E+01+
*       -1.050105802E+01               0
GRID*                852               0-6.140743779E+002.4239910992E+01+
*       -1.059683087E+01               0
GRID*                853               0-5.352512909E+002.5353186978E+01+
*       -1.100560683E+01               0
GRID*                854               0-2.085038979E+00-1.960695127E+01+
*       1.0797670854E+01               0
GRID*                855               03.2534952469E+00-2.567417673E+01+
*       -9.294123408E+00               0
GRID*                856               0-5.001274498E+00-2.437438501E+01+
*       6.0746688991E+00               0
GRID*                857               03.0482927118E+00-2.576660043E+01+
*       -8.067430359E+00               0
GRID*                858               02.8916391310E+00-2.776410284E+01+
*       -1.040656415E+01               0
GRID*                859               02.7557468100E+00-2.680934050E+01+
*       -9.287439170E+00               0
GRID*                860               03.9807073774E+00-2.625855715E+01+
*       -1.025663257E+01               0
GRID*                861               03.5366323071E+00-2.449015414E+01+
*       -9.726042543E+00               0
GRID*                862               03.2333086727E+00-2.518622758E+01+
*       -1.045001082E+01               0
GRID*                863               04.4517516870E+00-2.490063568E+01+
*       -1.054908206E+01               0
GRID*                864               03.9436709130E+00-3.701822927E+00+
*       9.6629154649E+00               0
GRID*                865               02.9710573224E+00-2.872303442E+01+
*       5.7397475456E+00               0
GRID*                866               05.8414919719E+00-2.508218704E+01+
*       -1.070670995E+01               0
GRID*                867               04.5321731231E+00-2.928557217E+01+
*       7.3112007107E+00               0
GRID*                868               03.6605176818E+00-2.770630775E+01+
*       6.0283489770E+00               0
GRID*                869               03.6655698356E+001.2867706329E+01+
*       7.7864238743E+00               0
GRID*                870               0-2.122814750E+002.0605249361E+01+
*       -8.998862983E+00               0
GRID*                871               0-4.052018430E+002.1870663533E+01+
*       -9.020970747E+00               0
GRID*                872               0-4.830337041E+002.0724140960E+01+
*       -8.135435894E+00               0
GRID*                873               0-5.551429340E+002.2037099875E+01+
*       -8.646272810E+00               0
GRID*                874               0-3.525069792E+002.0359354621E+01+
*       -7.175285252E+00               0
GRID*                875               0-3.222657197E+001.9387588388E+01+
*       -8.867082544E+00               0
GRID*                876               04.6003060946E+002.0550122504E+01+
*       -9.729970841E+00               0
GRID*                877               02.6696772037E+002.1132674459E+01+
*       -7.564415014E+00               0
GRID*                878               04.3676050976E+002.0739650010E+01+
*       -6.735954982E+00               0
GRID*                879               05.2650096768E+002.7793182726E+01+
*       -1.022891072E+01               0
GRID*                880               03.8628206494E+008.9207813020E+00+
*       7.8621745005E+00               0
GRID*                881               05.8426335674E+00-2.697747992E+01+
*       1.0428117665E+01               0
GRID*                882               01.7254339185E+00-2.952894951E+01+
*       1.1639489219E+01               0
GRID*                883               06.5618605628E-022.7450101515E+01+
*       -1.081916591E+01               0
GRID*                884               0-1.170978247E+002.9240560475E+01+
*       -1.189701369E+01               0
GRID*                885               0-4.468922211E+00-2.931184424E+01+
*       1.0665750210E+01               0
GRID*                886               0-2.915362239E+00-2.991738272E+01+
*       6.7205279311E+00               0
GRID*                887               0-2.533059859E+003.0297210053E+01+
*       -8.842019589E+00               0
GRID*                888               01.9701499647E+00-2.212687207E+01+
*       9.3525669228E+00               0
GRID*                889               03.0004598136E+00-2.296962028E+01+
*       8.9278993402E+00               0
GRID*                890               01.2141790623E+00-2.184023119E+01+
*       6.9439716808E+00               0
GRID*                891               02.6961514358E+00-2.722388137E+01+
*       8.3070316626E+00               0
GRID*                892               04.9920800848E+00-2.787039320E+01+
*       7.7747182215E+00               0
GRID*                893               05.0250031638E+00-2.286610724E+01+
*       6.9195506918E+00               0
GRID*                894               03.9425917218E+00-2.529622980E+01+
*       7.0889037349E+00               0
GRID*                895               03.7056603748E+00-2.473232489E+01+
*       5.6803634906E+00               0
GRID*                896               04.6450035170E+00-2.607845830E+01+
*       5.8386047065E+00               0
GRID*                897               03.0929054230E+00-2.636133199E+01+
*       5.8097300164E+00               0
GRID*                898               01.5626513580E+00-2.813860742E+01+
*       -1.048247660E+01               0
GRID*                899               02.8053435160E+00-2.663736807E+01+
*       -1.047581197E+01               0
GRID*                900               06.5684397445E+002.6225333964E+01+
*       -1.035371069E+01               0
GRID*                901               06.3123503164E+002.5427437011E+01+
*       -8.884988939E+00               0
GRID*                902               06.3046275668E+002.7575982506E+01+
*       -1.011616246E+01               0
GRID*                903               05.6344340977E+002.7436701025E+01+
*       -7.528435974E+00               0
GRID*                904               0-3.684839269E-01-2.150574370E+01+
*       -1.031551349E+01               0
GRID*                905               05.9639816099E+00-2.404135395E+01+
*       8.0290476078E+00               0
GRID*                906               0-4.341757263E+002.9217450668E+01+
*       7.2328548908E+00               0
GRID*                907               0-2.648608444E+001.8641596356E+01+
*       -1.038837962E+01               0
GRID*                908               0-3.335323371E+002.4330899918E+01+
*       7.3259894062E+00               0
GRID*                909               0-2.492445691E+002.8796005747E+01+
*       5.6057722524E+00               0
GRID*                910               0-6.892253135E-012.7037287700E+01+
*       6.0571457505E+00               0
GRID*                911               05.4547538583E+002.1062427891E+01+
*       -7.048743868E+00               0
GRID*                912               01.7895313785E+00-1.500275914E+01+
*       9.6347595809E+00               0
GRID*                913               03.8876716168E+00-1.332439119E+01+
*       9.6547673552E+00               0
GRID*                914               01.9967726803E+00-1.456513976E+01+
*       7.6424641530E+00               0
GRID*                915               03.7836845049E+00-1.428188912E+01+
*       7.5725458474E+00               0
GRID*                916               0-3.407161785E+00-2.327418444E+01+
*       -1.035960788E+01               0
GRID*                917               0-3.165383761E+002.5232367378E+01+
*       -5.384775532E+00               0
GRID*                918               01.9290578395E+002.4057081881E+01+
*       9.3457550319E+00               0
GRID*                919               0-1.918966466E+002.1626391430E+01+
*       -7.427560504E+00               0
GRID*                920               03.0471843923E+00-2.131598511E+01+
*       9.0491430883E+00               0
GRID*                921               03.0144798054E+00-2.132301952E+01+
*       7.5354135338E+00               0
GRID*                922               0-2.032391682E+00-1.177480105E+01+
*       9.4178594090E+00               0
GRID*                923               04.2613476854E-02-1.336242943E+01+
*       9.4331470302E+00               0
GRID*                924               01.5212420250E+00-1.892189730E+01+
*       8.8250484610E+00               0
GRID*                925               06.3409665085E+00-2.529490823E+01+
*       1.0390596634E+01               0
GRID*                926               05.7510469610E+00-2.380480613E+01+
*       9.7272924308E+00               0
GRID*                927               0-4.171965167E+002.2291029524E+01+
*       1.0940561840E+01               0
GRID*                928               0-3.231022444E+001.3727849055E+01+
*       8.9472883746E+00               0
GRID*                929               0-1.885245712E+001.3690700091E+00+
*       8.6460402190E+00               0
GRID*                930               0-2.246530703E+003.7890925712E+00+
*       8.9094451554E+00               0
GRID*                931               02.5530036484E-022.6577496459E+01+
*       1.4993191039E+00               0
GRID*                932               01.0697852474E+00-1.938842504E+01+
*       -1.104214946E+01               0
GRID*                933               02.2179691701E-01-1.810960134E+01+
*       -1.040716199E+01               0
GRID*                934               0-1.962693941E-01-1.822712103E+01+
*       -9.337547593E+00               0
GRID*                935               0-8.978297468E-01-2.091731758E+01+
*       -1.157720376E+01               0
GRID*                936               0-3.879954614E+001.7282330066E+01+
*       -9.972449631E+00               0
GRID*                937               0-2.012095914E+00-1.942641172E+01+
*       -1.089514672E+01               0
GRID*                938               0-2.544104821E+00-1.873702122E+01+
*       -1.055245181E+01               0
GRID*                939               0-3.062650118E+00-1.778481455E+01+
*       -1.027455298E+01               0
GRID*                940               0-3.936508857E+00-1.892690724E+01+
*       -1.016156573E+01               0
GRID*                941               0-1.540140821E-01-2.878395232E+01+
*       -7.213086358E+00               0
GRID*                942               01.6090758340E+00-2.938353507E+01+
*       -7.751206162E+00               0
GRID*                943               03.1975942759E+00-2.592701948E+01+
*       9.2273348518E+00               0
GRID*                944               05.7907336486E+00-2.201253955E+01+
*       7.3514648492E+00               0
GRID*                945               07.4335287223E-01-2.813105986E+01+
*       -7.852213362E+00               0
GRID*                946               01.1871436909E+00-2.822943676E+01+
*       -6.293410687E+00               0
GRID*                947               01.9755441674E+00-2.943967556E+01+
*       -5.963896145E+00               0
GRID*                948               01.2128660909E+00-2.056788367E+01+
*       -8.924514310E+00               0
GRID*                949               01.3677873273E+00-2.146150284E+01+
*       -9.548917544E+00               0
GRID*                950               08.0032709847E-01-2.179505822E+01+
*       -1.080558253E+01               0
GRID*                951               01.4840644250E+00-1.833687052E+01+
*       1.0327134106E+01               0
GRID*                952               01.9114300244E-014.9471982685E+00+
*       9.4424106329E+00               0
GRID*                953               0-5.167966734E-022.2539998132E+00+
*       7.8983976037E+00               0
GRID*                954               01.6501563575E+007.9074490693E+00+
*       8.6760622501E+00               0
GRID*                955               02.0882312671E+006.5062673274E+00+
*       9.0859690225E+00               0
GRID*                956               0-2.490466680E+002.1373681752E+01+
*       -5.733088817E+00               0
GRID*                957               0-1.512492300E+002.6857218699E+01+
*       -1.032114987E+01               0
GRID*                958               03.0424670648E-02-7.017725048E+00+
*       9.0130229665E+00               0
GRID*                959               0-2.442051217E+001.8791790925E+01+
*       7.2396754849E+00               0
GRID*                960               0-1.819847795E+002.3178171621E+01+
*       -1.067442073E+01               0
GRID*                961               0-2.348024014E+00-1.575904009E+01+
*       -7.668255414E+00               0
GRID*                962               0-8.416846473E-01-1.341762155E+01+
*       -8.610697037E+00               0
GRID*                963               0-5.885538807E+002.6670307917E+01+
*       1.0268806656E+01               0
GRID*                964               02.1415758356E+00-1.969548308E+01+
*       -7.964261846E+00               0
GRID*                965               01.4732162605E+002.9419115882E+01+
*       9.0493240398E+00               0
GRID*                966               07.2101469061E-013.0971948342E+01+
*       1.0337246800E+01               0
GRID*                967               0-4.473128909E-013.0017510398E+01+
*       8.2710128912E+00               0
GRID*                968               01.9333207766E+003.0638407805E+01+
*       1.0765808075E+01               0
GRID*                969               03.0998774763E-022.9269662625E+01+
*       1.1699738945E+01               0
GRID*                970               09.8316122069E-012.8637701878E+01+
*       7.0057153306E+00               0
GRID*                971               02.6063763314E+002.1542165733E+01+
*       1.1988396356E+01               0
GRID*                972               02.7384076301E+003.0059053873E+01+
*       8.5749324459E+00               0
GRID*                973               0-2.807341303E+00-2.992194698E+01+
*       1.0565585715E+01               0
GRID*                974               02.2288756336E+001.6730629577E+01+
*       -7.489727308E+00               0
GRID*                975               0-2.677646968E+00-1.882865265E+01+
*       1.0359609035E+01               0
GRID*                976               04.0640918465E+001.1288760866E+01+
*       8.3431142653E+00               0
GRID*                977               0-2.852653441E+00-1.731804862E+01+
*       9.6102871491E+00               0
GRID*                978               0-5.896923611E+002.6593283794E+01+
*       -7.184185392E+00               0
GRID*                979               03.7907219919E+00-1.556044709E+01+
*       -9.795858143E+00               0
GRID*                980               0-3.226970477E+002.7491224855E+01+
*       -5.702363104E+00               0
GRID*                981               0-5.212707523E+002.8144902379E+01+
*       -7.307116497E+00               0
GRID*                982               0-2.055535233E+001.5274328027E+01+
*       -7.878399588E+00               0
GRID*                983               0-3.346538063E+00-1.197644769E+01+
*       -9.144064644E+00               0
GRID*                984               0-1.780844921E+001.6686453061E+01+
*       -9.746727725E+00               0
GRID*                985               0-1.340517046E+001.5347036631E+01+
*       -9.889426951E+00               0
GRID*                986               0-3.794543929E+001.6511874744E+01+
*       -8.180876345E+00               0
GRID*                987               01.4564364255E+001.7519655269E+01+
*       -9.937273878E+00               0
GRID*                988               03.4661217352E+001.9606251550E+01+
*       8.9238220557E+00               0
GRID*                989               04.6246281365E+002.0389772854E+01+
*       8.7073130058E+00               0
GRID*                990               03.0225280632E+002.0393089699E+01+
*       1.0197601556E+01               0
GRID*                991               03.5726027708E+001.9338999270E+01+
*       1.0086412440E+01               0
GRID*                992               04.5631557700E+002.0948888745E+01+
*       1.0592257986E+01               0
GRID*                993               04.8953459265E+00-2.591576288E+01+
*       1.1556126127E+01               0
GRID*                994               0-1.255683056E+00-2.192421912E+01+
*       8.2206510515E+00               0
GRID*                995               0-1.909581018E+00-2.839709939E+01+
*       -5.719380590E+00               0
GRID*                996               0-3.145079364E+00-2.736011636E+01+
*       -5.801731442E+00               0
GRID*                997               0-2.872603665E+00-2.992203963E+01+
*       -1.108462111E+01               0
GRID*                998               0-3.216315031E+00-2.593851343E+01+
*       -7.042178080E+00               0
GRID*                999               02.3300688288E+002.8557109304E+01+
*       1.1698798912E+01               0
GRID*               1000               0-3.384956499E+001.7501943746E+01+
*       -7.597250006E+00               0
GRID*               1001               0-4.160689403E+001.8088005700E+01+
*       -8.782992467E+00               0
GRID*               1002               0-3.884204385E+002.2465926491E+01+
*       -5.812099969E+00               0
GRID*               1003               0-2.426210663E+001.1165626745E+01+
*       9.3064675314E+00               0
GRID*               1004               0-4.008094145E+001.2148696943E+01+
*       7.8172599622E+00               0
GRID*               1005               0-4.075842187E+001.2405535098E+01+
*       9.4346747464E+00               0
GRID*               1006               0-2.136755574E+003.0144418133E+01+
*       1.1170357088E+01               0
GRID*               1007               0-1.281499771E+003.1193364503E+01+
*       1.0311960274E+01               0
GRID*               1008               0-2.722993104E+00-2.813492116E+01+
*       -1.028211300E+01               0
GRID*               1009               0-4.473153952E+00-2.799641353E+01+
*       -1.091974721E+01               0
GRID*               1010               0-3.900039579E+00-1.728767371E+01+
*       -7.641487699E+00               0
GRID*               1011               0-2.272769484E+00-1.770101249E+01+
*       -7.442127824E+00               0
GRID*               1012               0-2.660573096E+00-1.758245011E+01+
*       -8.484034471E+00               0
GRID*               1013               0-1.715102598E+00-2.835357900E+01+
*       -1.049320185E+01               0
GRID*               1014               0-1.831934141E+00-2.800720348E+01+
*       -1.157994684E+01               0
GRID*               1015               0-2.753013239E+00-2.872331215E+01+
*       -1.177970424E+01               0
GRID*               1016               02.8726574572E+002.7109476601E+01+
*       -5.643224187E+00               0
GRID*               1017               0-1.381360250E+001.9397288113E+01+
*       -1.048221090E+01               0
GRID*               1018               0-2.482551100E-011.7542458421E+01+
*       -1.001447640E+01               0
GRID*               1019               03.7607125459E-011.8455167483E+01+
*       -1.018612582E+01               0
GRID*               1020               07.1144974273E-011.9628773950E+01+
*       -1.122423181E+01               0
GRID*               1021               0-4.702040445E+002.7894629062E+01+
*       -8.744722448E+00               0
GRID*               1022               0-3.728770031E+00-6.112413484E+00+
*       8.7090132761E+00               0
GRID*               1023               0-2.800527834E+00-9.841186414E-02+
*       -9.313180186E+00               0
GRID*               1024               03.7408402913E-01-2.167078680E+01+
*       -5.840790193E+00               0
GRID*               1025               04.4155242876E-012.1976023501E+01+
*       -5.545312729E+00               0
GRID*               1026               0-3.793267253E+002.6792023034E+00+
*       9.7981772288E+00               0
GRID*               1027               0-3.939099226E+004.9220282233E+00+
*       9.5713838577E+00               0
GRID*               1028               0-3.914227242E+004.8003933511E+00+
*       7.7276053490E+00               0
GRID*               1029               03.8637076049E+005.2990745888E-01+
*       9.8065729356E+00               0
GRID*               1030               03.2833792554E+00-2.301881258E+00+
*       9.7496091148E+00               0
GRID*               1031               0-4.450054681E+00-2.305380852E+01+
*       -5.618942430E+00               0
GRID*               1032               0-2.089087442E+00-2.331697875E+00+
*       8.8741108245E+00               0
GRID*               1033               0-1.288130360E+002.6093715066E+01+
*       -2.365831742E-01               0
GRID*               1034               0-3.979145204E+00-2.625079361E+00+
*       9.3559833256E+00               0
GRID*               1035               04.9153492289E+00-2.807537854E+01+
*       -9.776017425E+00               0
GRID*               1036               04.2363536683E+001.8302075522E+01+
*       8.0864875008E+00               0
GRID*               1037               0-2.861806446E+00-2.680738766E+01+
*       1.0432824077E+01               0
GRID*               1038               0-3.403399002E+00-2.591567019E+01+
*       9.2242475609E+00               0
GRID*               1039               0-1.533715229E+00-3.049501861E+01+
*       -6.661283340E+00               0
GRID*               1040               0-6.578912877E-012.1495773685E+01+
*       -1.074822200E+01               0
GRID*               1041               01.7302336899E+00-3.581660757E+00+
*       8.3430888661E+00               0
GRID*               1042               02.1313196324E+00-2.798000564E+01+
*       6.8086382690E+00               0
GRID*               1043               0-3.812902426E+00-1.352435573E+01+
*       7.9599295817E+00               0
GRID*               1044               0-1.721315613E+002.7175523410E+01+
*       5.4013898724E+00               0
GRID*               1045               0-4.118544751E-01-2.124387818E+01+
*       7.1055983139E+00               0
GRID*               1046               0-4.500452763E+002.0591064971E+01+
*       -9.929847711E+00               0
GRID*               1047               0-4.134899097E+002.1798581965E+01+
*       -1.074294689E+01               0
GRID*               1048               0-2.317649135E+002.1325745273E+01+
*       -1.151265843E+01               0
GRID*               1049               03.7091962423E+00-2.726135621E+00+
*       7.9779547448E+00               0
GRID*               1050               02.6333392164E+001.6068505830E+01+
*       9.6486166275E+00               0
GRID*               1051               04.2569941021E+001.8516455886E+01+
*       9.4660428217E+00               0
GRID*               1052               02.5738201163E+00-2.688920798E+01+
*       -8.310778627E+00               0
GRID*               1053               03.4358195744E+00-1.642818311E+01+
*       9.8290714465E+00               0
GRID*               1054               0-9.950598940E-01-2.069471753E+01+
*       5.6267309655E+00               0
GRID*               1055               0-6.541392111E-01-2.824840658E+01+
*       1.1674197005E+01               0
GRID*               1056               02.7664599436E-01-1.971819135E+01+
*       7.9998496892E+00               0
GRID*               1057               0-5.722157349E-01-1.850011925E+01+
*       8.6859774209E+00               0
GRID*               1058               01.7264190032E-01-2.006826767E+01+
*       1.1211493996E+01               0
GRID*               1059               0-4.137548146E+00-2.589399054E+01+
*       -1.166862841E+01               0
GRID*               1060               0-1.662994539E+00-2.223511768E+01+
*       6.5980979096E+00               0
GRID*               1061               02.2934626077E+002.1432440089E+01+
*       -5.631322107E+00               0
GRID*               1062               0-2.548865831E+002.3200807140E+01+
*       -5.682454962E+00               0
GRID*               1063               0-5.271098814E+002.1508456964E+01+
*       -1.006101942E+01               0
GRID*               1064               01.4096875470E-012.3572934780E+01+
*       -1.154082063E+01               0
GRID*               1065               0-2.367120733E+00-4.061531114E+00+
*       8.8225863134E+00               0
GRID*               1066               02.4587577628E-02-2.494759964E+00+
*       9.0336461257E+00               0
GRID*               1067               0-3.121350930E+00-2.416507369E+01+
*       5.8922044612E+00               0
GRID*               1068               02.0639789195E+008.1862838684E-01+
*       8.3786534635E+00               0
GRID*               1069               02.7779065101E+002.6864844557E+00+
*       8.3157367797E+00               0
GRID*               1070               02.2431016196E+00-2.243071670E+01+
*       -6.281691097E+00               0
GRID*               1071               01.1734298761E+00-2.206820920E+01+
*       -6.988070268E+00               0
GRID*               1072               0-2.336624953E+001.7994309759E+01+
*       -8.687089064E+00               0
GRID*               1073               0-1.095691832E+001.6589148593E+01+
*       -8.428828162E+00               0
GRID*               1074               0-2.932089418E-011.6715993181E+01+
*       -7.315882947E+00               0
GRID*               1075               05.1092761042E+00-2.162214465E+01+
*       -8.047266712E+00               0
GRID*               1076               06.1723404553E+00-2.330585986E+01+
*       -7.417896039E+00               0
GRID*               1077               06.0106636576E+00-2.301337403E+01+
*       -1.005492929E+01               0
GRID*               1078               03.5204890778E+00-2.329162483E+01+
*       -7.007744836E+00               0
GRID*               1079               04.8725759409E+00-2.438964849E+01+
*       -7.905138006E+00               0
GRID*               1080               06.2671957582E+00-2.499007608E+01+
*       -7.085930925E+00               0
GRID*               1081               0-3.200621102E+00-2.559241425E+01+
*       -8.695730116E+00               0
GRID*               1082               0-5.142114011E+00-2.451207308E+01+
*       -7.956155043E+00               0
GRID*               1083               0-6.422590543E+00-2.484276752E+01+
*       -7.320408460E+00               0
GRID*               1084               0-3.637553654E+00-2.479988028E+01+
*       -7.309648888E+00               0
GRID*               1085               0-5.886570119E+00-2.519611567E+01+
*       -6.497526464E+00               0
GRID*               1086               0-5.377663226E+00-2.346029918E+01+
*       -6.466141633E+00               0
GRID*               1087               0-6.007100411E+00-2.278923543E+01+
*       -7.481687563E+00               0
GRID*               1088               03.4106947872E+002.9139823364E+01+
*       -6.133932929E+00               0
GRID*               1089               0-1.560128094E+00-2.810478157E+01+
*       -7.161393909E+00               0
GRID*               1090               0-1.996911691E+00-2.789874141E+01+
*       -8.707179729E+00               0
GRID*               1091               0-7.698513022E-012.5872790584E+01+
*       -1.168825645E+01               0
GRID*               1092               0-2.811000139E-016.6789687752E+00+
*       9.0620451929E+00               0
GRID*               1093               02.3418750047E-01-9.269552837E+00+
*       8.5609734996E+00               0
GRID*               1094               0-4.108907712E+00-5.080552322E+00+
*       9.8191411699E+00               0
GRID*               1095               0-6.448219818E+002.4865819298E+01+
*       -7.038999905E+00               0
GRID*               1096               03.8310209462E+00-1.346979118E+01+
*       -9.631526059E+00               0
GRID*               1097               02.4302026106E+00-1.140494749E+01+
*       -8.761286371E+00               0
GRID*               1098               0-3.227385592E+001.9853226405E+01+
*       -1.063424712E+01               0
GRID*               1099               0-3.771617636E+00-6.332218031E-01+
*       9.5669539033E+00               0
GRID*               1100               0-3.942291925E+00-1.833928402E+01+
*       -9.395941205E+00               0
GRID*               1101               0-3.763880492E+00-1.901717052E+01+
*       -7.612014540E+00               0
GRID*               1102               0-1.226816786E+00-5.340386157E+00+
*       -9.241838070E+00               0
GRID*               1103               01.8902630855E+00-1.025650807E+00+
*       9.5212638964E+00               0
GRID*               1104               0-4.001670581E+00-2.583802856E+01+
*       -5.745312702E+00               0
GRID*               1105               03.7728156635E+002.2379582261E+01+
*       -5.702532855E+00               0
GRID*               1106               0-5.638493437E+002.2155434939E+01+
*       -7.105729704E+00               0
GRID*               1107               0-3.986613994E+00-2.423373641E+01+
*       -5.661215607E+00               0
GRID*               1108               02.5283016110E+001.1893760582E+01+
*       8.5859526201E+00               0
GRID*               1109               0-1.670985166E+002.4753092865E+01+
*       -1.491126822E+00               0
GRID*               1110               02.4017536868E+004.8100335861E+00+
*       9.0443111253E+00               0
GRID*               1111               03.5486600262E+003.4763680898E+00+
*       9.7759360403E+00               0
GRID*               1112               01.2176816073E+00-2.810947278E+01+
*       8.1952519970E+00               0
GRID*               1113               03.0143149383E+00-2.686662669E+01+
*       7.2553220406E+00               0
GRID*               1114               0-7.173597680E-011.4475691889E+01+
*       -8.678167511E+00               0
GRID*               1115               0-9.004398709E-01-2.911598992E+01+
*       -5.716609488E+00               0
GRID*               1116               0-2.163533716E+001.6625214989E+01+
*       -7.932382490E+00               0
GRID*               1117               03.3521145256E-011.5608393133E+01+
*       -7.968206723E+00               0
GRID*               1118               02.7139808858E+00-2.981907259E+01+
*       -1.095481836E+01               0
GRID*               1119               0-8.839107645E-012.7885369621E+01+
*       5.5064777149E+00               0
GRID*               1120               03.8546536080E+00-7.517663699E-01+
*       8.2186182339E+00               0
GRID*               1121               07.0623528501E-01-1.821404640E+01+
*       8.6998613844E+00               0
GRID*               1122               01.4771425887E+00-2.188004485E+01+
*       -8.321913676E+00               0
GRID*               1123               03.6116615494E+00-2.275270607E+01+
*       5.5203289275E+00               0
GRID*               1124               04.6867947931E+00-2.176776556E+01+
*       6.3646473061E+00               0
GRID*               1125               05.2837249813E+00-2.403043982E+01+
*       6.5626245891E+00               0
GRID*               1126               09.8832563225E-01-2.050097884E+01+
*       -5.766721930E+00               0
GRID*               1127               04.5333429628E+00-2.185668136E+01+
*       -6.475166259E+00               0
GRID*               1128               02.2134055887E+00-2.089968816E+01+
*       -6.860619012E+00               0
GRID*               1129               09.4734987721E-01-3.010198274E+01+
*       -1.137044266E+01               0
GRID*               1130               09.7493053386E-01-1.735249523E+01+
*       1.0102320348E+01               0
GRID*               1131               0-4.804252528E+002.9028017807E+01+
*       -7.108756795E+00               0
GRID*               1132               0-5.771391940E-013.1017119287E+01+
*       -7.000437724E+00               0
GRID*               1133               0-1.705046844E+002.5438863509E+01+
*       2.4373875063E+00               0
GRID*               1134               0-1.385125162E+002.5997465553E+01+
*       2.9849730807E+00               0
GRID*               1135               0-1.969489454E+00-2.948901720E+01+
*       5.8175556567E+00               0
GRID*               1136               02.1171352527E+00-2.802837983E+01+
*       -9.089424106E+00               0
GRID*               1137               02.8217579817E+00-1.643655174E+01+
*       -9.104447803E+00               0
GRID*               1138               01.9649329304E+002.7103509220E+01+
*       5.6677136375E+00               0
GRID*               1139               02.3580994889E+003.1042940513E+01+
*       6.9825509937E+00               0
GRID*               1140               0-8.843019469E-011.7823646593E+01+
*       7.2429929665E+00               0
GRID*               1141               0-1.907669223E+001.7656980685E+01+
*       7.2895819532E+00               0
GRID*               1142               0-3.080513011E-01-1.740346440E+01+
*       9.8631862539E+00               0
GRID*               1143               03.2240034568E-01-1.638240747E+01+
*       9.7879817589E+00               0
GRID*               1144               0-1.851779573E+00-9.979486853E+00+
*       9.0891601242E+00               0
GRID*               1145               01.4326806984E+00-1.935988022E+01+
*       1.0874000621E+01               0
GRID*               1146               04.4805652092E+00-2.608570487E+01+
*       9.5527270283E+00               0
GRID*               1147               05.4667300846E+00-2.613514109E+01+
*       8.1876268115E+00               0
GRID*               1148               0-3.468443771E+003.0691536158E+01+
*       7.2220787345E+00               0
GRID*               1149               0-4.611136534E+00-2.919360384E+01+
*       7.2566875525E+00               0
GRID*               1150               0-2.198401340E+00-2.757652339E+01+
*       8.2503387162E+00               0
GRID*               1151               01.4436966771E+00-1.743315858E+01+
*       -7.272188112E+00               0
GRID*               1152               0-4.482504287E-01-1.746345608E+01+
*       -8.518208099E+00               0
GRID*               1153               0-2.864096074E-01-1.572642472E+01+
*       -7.886815231E+00               0
GRID*               1154               0-3.662232677E-01-1.565279954E+01+
*       -9.844980562E+00               0
GRID*               1155               02.2201275150E+002.0750266447E+00+
*       -8.585750917E+00               0
GRID*               1156               0-2.251872188E+00-6.279982670E+00+
*       8.1687475522E+00               0
GRID*               1157               04.1096067326E+005.7432355357E+00+
*       9.4120420469E+00               0
GRID*               1158               03.6229089875E+007.7270781144E+00+
*       9.7060136859E+00               0
GRID*               1159               0-2.293170305E+002.2743269971E+01+
*       5.3060999471E+00               0
GRID*               1160               01.7098093057E+00-2.150410230E+01+
*       8.2801565672E+00               0
GRID*               1161               03.7143401073E+003.7492767318E+00+
*       7.8593707223E+00               0
GRID*               1162               0-3.486102931E+00-1.386451476E+01+
*       -9.264394946E+00               0
GRID*               1163               0-1.036683924E+00-1.749427243E+01+
*       7.8518208879E+00               0
GRID*               1164               02.7931839025E+001.7579898594E+01+
*       -7.482633422E+00               0
GRID*               1165               0-2.622003503E+001.8493071495E+01+
*       -7.374671255E+00               0
GRID*               1166               0-8.761584853E-02-2.168230030E+01+
*       5.8354666049E+00               0
GRID*               1167               0-4.013668187E+00-1.216316743E+01+
*       7.7558567900E+00               0
GRID*               1168               0-1.937115115E+001.7796820589E+01+
*       8.4373834670E+00               0
GRID*               1169               0-2.693066150E+00-1.880562127E+01+
*       -6.956852240E+00               0
GRID*               1170               06.6507193843E-013.1561736281E+01+
*       -7.119294928E+00               0
GRID*               1171               0-5.009871939E+00-2.814278598E+01+
*       -6.734007314E+00               0
GRID*               1172               03.7665726751E+00-1.221726212E+01+
*       -7.927056961E+00               0
GRID*               1173               05.7022703791E+00-2.678630452E+01+
*       6.7842582895E+00               0
GRID*               1174               0-1.169874694E+00-2.936725367E+01+
*       -8.003043958E+00               0
GRID*               1175               0-3.017127823E+00-2.974999862E+01+
*       -6.441222305E+00               0
GRID*               1176               03.3593715922E+003.0672042457E+01+
*       1.0177629976E+01               0
GRID*               1177               04.4198383647E-012.8423175189E+01+
*       5.6184310367E+00               0
GRID*               1178               0-3.338401357E+00-2.728906394E+01+
*       1.1739713476E+01               0
GRID*               1179               06.0363238048E+002.6714959205E+01+
*       7.2006328462E+00               0
GRID*               1180               06.3294223770E-012.6804291508E+01+
*       5.4342781633E+00               0
GRID*               1181               0-3.651516912E+001.9109485319E+01+
*       -7.202151526E+00               0
GRID*               1182               03.2074893351E+006.0124745564E+00+
*       -8.986207930E+00               0
GRID*               1183               0-7.811959190E-01-3.050801570E+01+
*       6.2948738904E+00               0
GRID*               1184               04.5274784910E+002.6082373990E+01+
*       5.8878683378E+00               0
GRID*               1185               01.1836790633E+001.6670525340E+01+
*       -7.263627462E+00               0
GRID*               1186               02.7390896997E+00-1.626881989E+01+
*       8.2019851586E+00               0
GRID*               1187               03.5940103386E+00-1.958416483E+01+
*       -7.290820238E+00               0
GRID*               1188               04.0557600839E+00-1.554144573E+01+
*       7.7472506461E+00               0
GRID*               1189               06.6255904160E+00-2.474904670E+01+
*       7.0155701462E+00               0
GRID*               1190               05.5702756154E+00-2.535196714E+01+
*       6.6143142256E+00               0
GRID*               1191               0-1.816250143E+00-2.952830981E+01+
*       1.1435995076E+01               0
GRID*               1192               04.9883029815E+00-2.775560083E+01+
*       6.3994079968E+00               0
GRID*               1193               0-1.756625104E+00-8.203135939E+00+
*       8.5419930184E+00               0
GRID*               1194               0-1.159199007E-01-4.841215838E+00+
*       9.1491782129E+00               0
GRID*               1195               0-1.289805282E+001.6523559242E+01+
*       7.8327520865E+00               0
GRID*               1196               0-1.501918581E+00-1.492950348E+01+
*       -9.571112322E+00               0
GRID*               1197               05.6978515658E+00-2.179678655E+01+
*       1.0278686410E+01               0
GRID*               1198               0-1.331089645E+00-2.186490406E+01+
*       -6.034844613E+00               0
GRID*               1199               03.9560352760E+001.5895962987E+00+
*       8.1125638788E+00               0
GRID*               1200               0-2.667048285E+00-2.745679932E+01+
*       -7.417175287E+00               0
GRID*               1201               0-2.489045622E+001.7088111471E+01+
*       9.2574121224E+00               0
GRID*               1202               03.0882860051E+004.4799347403E+00+
*       -8.620199783E+00               0
GRID*               1203               02.1983760604E+00-1.643081886E+01+
*       9.9907147892E+00               0
GRID*               1204               04.6198764954E+00-2.659117542E+01+
*       7.1662704137E+00               0
GRID*               1205               0-3.802047731E+00-1.090091462E+01+
*       7.6982310513E+00               0
GRID*               1206               0-3.783674975E+00-2.748647778E+01+
*       -7.858027530E+00               0
GRID*               1207               0-1.264250122E+00-2.038720923E+01+
*       1.1728148525E+01               0
GRID*               1208               0-2.076684615E+00-1.682676568E+01+
*       -9.885198719E+00               0
GRID*               1209               0-1.505804959E+00-1.683807593E+01+
*       -9.037953205E+00               0
GRID*               1210               01.8501780151E+00-1.555153552E+01+
*       -7.642069831E+00               0
GRID*               1211               0-4.897937651E-01-1.737686802E+01+
*       -7.401041420E+00               0
GRID*               1212               0-5.043278760E+00-2.668720458E+01+
*       -6.204751420E+00               0
GRID*               1213               05.2099674113E+00-2.249601210E+01+
*       -6.442266716E+00               0
GRID*               1214               0-6.041052074E-021.0441231370E-01+
*       9.0328569480E+00               0
GRID*               1215               03.4637930969E+00-2.341540373E+01+
*       1.0375033444E+01               0
GRID*               1216               0-5.652171842E+00-2.655574365E+01+
*       -1.096001508E+01               0
GRID*               1217               0-3.315568979E+00-2.986168976E+01+
*       -1.211551708E+01               0
GRID*               1218               03.5649730235E+00-2.026995972E+01+
*       -1.207692141E+01               0
GRID*               1219               0-3.574634280E+00-2.027553654E+01+
*       -1.207553841E+01               0
GRID*               1220               0-5.747953329E+00-2.374198543E+01+
*       -1.211681034E+01               0
GRID*               1221               0-5.712931204E+00-2.657774608E+01+
*       -1.207295714E+01               0
GRID*               1222               0-6.096065602E+00-2.505014857E+01+
*       -1.190435073E+01               0
GRID*               1223               0-5.015218443E+00-2.800529100E+01+
*       -1.215333595E+01               0
GRID*               1224               0-4.438050251E+00-2.916893486E+01+
*       -1.191067530E+01               0
GRID*               1225               0-4.635463028E+00-2.143542674E+01+
*       -1.215247817E+01               0
GRID*               1226               0-5.509801820E+00-2.241159662E+01+
*       -1.191249713E+01               0
GRID*               1227               0-9.245596279E-01-1.922978082E+01+
*       -1.215713075E+01               0
GRID*               1228               06.7574729297E-01-1.911379699E+01+
*       -1.207487929E+01               0
GRID*               1229               02.2531776066E+00-1.933911514E+01+
*       -1.190706600E+01               0
GRID*               1230               0-2.298931488E+00-1.936464314E+01+
*       -1.191380149E+01               0
GRID*               1231               03.3045637112E+00-2.986750368E+01+
*       -1.211669447E+01               0
GRID*               1232               0-9.187572009E-01-3.077518804E+01+
*       -1.215313814E+01               0
GRID*               1233               0-2.256885274E+00-3.065545238E+01+
*       -1.191113854E+01               0
GRID*               1234               06.7112750301E-01-3.088960963E+01+
*       -1.207201893E+01               0
GRID*               1235               02.2138047722E+00-3.067875773E+01+
*       -1.190498757E+01               0
GRID*               1236               05.7472476408E+00-2.374285556E+01+
*       -1.211687533E+01               0
GRID*               1237               04.6371220922E+00-2.143708458E+01+
*       -1.215204938E+01               0
GRID*               1238               05.5135413693E+00-2.241877924E+01+
*       -1.191195025E+01               0
GRID*               1239               05.7180908350E+00-2.655963135E+01+
*       -1.207287371E+01               0
GRID*               1240               06.0941234013E+00-2.504429271E+01+
*       -1.190568843E+01               0
GRID*               1241               05.0155290702E+00-2.800662614E+01+
*       -1.215277083E+01               0
GRID*               1242               04.4229915347E+00-2.918428938E+01+
*       -1.191113830E+01               0
GRID*               1243               0-3.315569023E+00-2.986168973E+01+
*       -5.384482921E+00               0
GRID*               1244               03.5649730474E+00-2.026995972E+01+
*       -5.423078605E+00               0
GRID*               1245               0-3.574634309E+00-2.027553657E+01+
*       -5.424461579E+00               0
GRID*               1246               0-5.747953382E+00-2.374198542E+01+
*       -5.383189712E+00               0
GRID*               1247               0-5.712931279E+00-2.657774610E+01+
*       -5.427042938E+00               0
GRID*               1248               0-6.096065718E+00-2.505014860E+01+
*       -5.595649386E+00               0
GRID*               1249               0-5.015218429E+00-2.800529100E+01+
*       -5.346664038E+00               0
GRID*               1250               0-4.438050246E+00-2.916893482E+01+
*       -5.589324668E+00               0
GRID*               1251               0-4.635462994E+00-2.143542678E+01+
*       -5.347521780E+00               0
GRID*               1252               0-5.509801797E+00-2.241159664E+01+
*       -5.587502838E+00               0
GRID*               1253               0-9.245595291E-01-1.922978086E+01+
*       -5.342869189E+00               0
GRID*               1254               06.7574737557E-01-1.911379700E+01+
*       -5.425120712E+00               0
GRID*               1255               02.2531776260E+00-1.933911514E+01+
*       -5.592934002E+00               0
GRID*               1256               0-2.298931471E+00-1.936464315E+01+
*       -5.586198493E+00               0
GRID*               1257               03.3045636993E+00-2.986750370E+01+
*       -5.383305538E+00               0
GRID*               1258               0-9.187571741E-01-3.077518800E+01+
*       -5.346861806E+00               0
GRID*               1259               0-2.256885302E+00-3.065545237E+01+
*       -5.588861456E+00               0
GRID*               1260               06.7112752721E-01-3.088960962E+01+
*       -5.427981068E+00               0
GRID*               1261               02.2138047747E+00-3.067875773E+01+
*       -5.595012430E+00               0
GRID*               1262               05.7472476128E+00-2.374285551E+01+
*       -5.383124659E+00               0
GRID*               1263               04.6371221003E+00-2.143708457E+01+
*       -5.347950628E+00               0
GRID*               1264               05.5135413502E+00-2.241877919E+01+
*       -5.588049750E+00               0
GRID*               1265               05.7180908626E+00-2.655963135E+01+
*       -5.427126318E+00               0
GRID*               1266               06.0941234096E+00-2.504429270E+01+
*       -5.594311577E+00               0
GRID*               1267               05.0155290697E+00-2.800662614E+01+
*       -5.347229174E+00               0
GRID*               1268               04.4229915305E+00-2.918428939E+01+
*       -5.588861708E+00               0
GRID*               1269               0-5.000000000E+001.0309521949E+01+
*       -9.901326518E+00               0
GRID*               1270               0-5.000000000E+009.6468114878E+00+
*       -8.786993608E+00               0
GRID*               1271               0-5.000000000E+009.0028903973E+00+
*       -7.648949413E+00               0
GRID*               1272               0-5.000000000E+001.0201185542E+01+
*       -7.641312484E+00               0
GRID*               1273               0-5.000000000E+001.0822001744E+01+
*       -8.773904731E+00               0
GRID*               1274               0-5.000000000E+001.1433500062E+01+
*       -9.897893285E+00               0
GRID*               1275               0-5.000000000E+001.1370747718E+01+
*       -7.638610459E+00               0
GRID*               1276               0-5.000000000E+001.1982885353E+01+
*       -8.786058184E+00               0
GRID*               1277               0-5.000000000E+001.2555190135E+01+
*       -9.925211959E+00               0
GRID*               1278               0-5.000000000E+001.2540872598E+01+
*       -7.653489233E+00               0
GRID*               1279               0-5.000000000E+001.3182373204E+01+
*       -8.847040146E+00               0
GRID*               1280               0-5.000000000E+001.3682389161E+01+
*       -1.001637963E+01               0
GRID*               1281               0-5.000000000E+001.5580403215E+01+
*       -1.002925528E+01               0
GRID*               1282               0-5.000000000E+001.6049281518E+01+
*       -8.869908508E+00               0
GRID*               1283               0-5.000000000E+001.6736269473E+01+
*       -7.695293397E+00               0
GRID*               1284               0-5.000000000E+001.8149582772E+01+
*       -7.853075921E+00               0
GRID*               1285               0-5.000000000E+001.7339174583E+01+
*       -8.913721553E+00               0
GRID*               1286               0-5.000000000E+001.6734370457E+01+
*       -9.970273116E+00               0
GRID*               1287               0-5.000000000E+001.7908185583E+01+
*       -9.976872524E+00               0
GRID*               1288               0-5.000000000E+001.8443190512E+01+
*       -9.075721942E+00               0
GRID*               1289               0-5.000000000E+001.4591940389E+01+
*       -9.031957628E+00               0
GRID*               1290               0-5.000000000E+001.4628390279E+01+
*       -1.023902996E+01               0
GRID*               1291               0-5.000000000E+001.3775786585E+01+
*       -7.673678258E+00               0
GRID*               1292               0-5.000000000E+001.5249680257E+01+
*       -7.555118176E+00               0
GRID*               1293               0-5.000000000E+00-1.262530597E+01+
*       -8.517739436E+00               0
GRID*               1294               0-5.000000000E+00-1.366471516E+01+
*       -9.910878647E+00               0
GRID*               1295               0-5.000000000E+00-1.461471265E+01+
*       -8.511577066E+00               0
GRID*               1296               0-5.000000000E+00-1.649147098E+01+
*       -8.240610254E+00               0
GRID*               1297               0-5.000000000E+00-1.740575849E+01+
*       -9.856696254E+00               0
GRID*               1298               0-5.000000000E+00-1.821493662E+01+
*       -8.223087149E+00               0
GRID*               1299               0-5.000000000E+00-1.579867819E+01+
*       -9.807612432E+00               0
GRID*               1300               0-5.000000000E+00-1.470951600E+01+
*       -1.010002973E+01               0
GRID*               1301               0-5.000000000E+00-1.079119054E+01+
*       -8.277541883E+00               0
GRID*               1302               0-5.000000000E+00-1.158104965E+01+
*       -9.813643733E+00               0
GRID*               1303               0-5.000000000E+00-1.263642050E+01+
*       -1.010296392E+01               0
GRID*               1304               0-5.000000000E+005.0642139046E+00+
*       -9.870124357E+00               0
GRID*               1305               0-5.000000000E+005.7620938663E+00+
*       -8.735842243E+00               0
GRID*               1306               0-5.000000000E+006.4748683136E+00+
*       -7.626495720E+00               0
GRID*               1307               0-5.000000000E+007.7548922364E+00+
*       -7.646751866E+00               0
GRID*               1308               0-5.000000000E+008.3987545914E+00+
*       -8.806837775E+00               0
GRID*               1309               0-5.000000000E+007.0772656724E+00+
*       -8.792764410E+00               0
GRID*               1310               0-5.000000000E+009.1438157225E+00+
*       -9.924752864E+00               0
GRID*               1311               0-5.000000000E+007.7517313493E+00+
*       -1.004532068E+01               0
GRID*               1312               0-5.000000000E+006.3316241750E+00+
*       -9.908942753E+00               0
GRID*               1313               0-5.000000000E+004.4225324737E+00+
*       -8.613484678E+00               0
GRID*               1314               0-5.000000000E+004.0636761544E+00+
*       -7.455632432E+00               0
GRID*               1315               0-5.000000000E+005.1961026737E+00+
*       -7.568840581E+00               0
GRID*               1316               0-5.000000000E+003.6472233848E-02+
*       -9.643540680E+00               0
GRID*               1317               0-5.000000000E+009.9530544967E-01+
*       -8.109904515E+00               0
GRID*               1318               0-5.000000000E+001.6694786884E+00+
*       -9.813022922E+00               0
GRID*               1319               0-5.000000000E+003.5272391704E+00+
*       -9.907431621E+00               0
GRID*               1320               0-5.000000000E+002.8072907123E+00+
*       -8.127099970E+00               0
GRID*               1321               0-5.000000000E+00-5.412840650E+00+
*       -8.123417545E+00               0
GRID*               1322               0-5.000000000E+00-6.285806473E+00+
*       -9.656889976E+00               0
GRID*               1323               0-5.000000000E+00-1.025172544E+01+
*       -9.812654361E+00               0
GRID*               1324               0-5.000000000E+00-8.919555664E+00+
*       -8.460704551E+00               0
GRID*               1325               0-5.000000000E+00-8.981533183E+00+
*       -1.018041671E+01               0
GRID*               1326               0-5.000000000E+00-7.680760674E+00+
*       -9.766785124E+00               0
GRID*               1327               0-5.000000000E+00-7.056863116E+00+
*       -8.175410573E+00               0
GRID*               1328               0-5.000000000E+00-3.136393535E+00+
*       -9.639402330E+00               0
GRID*               1329               0-5.000000000E+00-2.187885554E+00+
*       -8.103401603E+00               0
GRID*               1330               0-5.000000000E+00-6.027432216E-01+
*       -8.099836212E+00               0
GRID*               1331               0-5.000000000E+00-1.568981319E+00+
*       -9.769048115E+00               0
GRID*               1332               0-5.000000000E+00-4.732915668E+00+
*       -9.776053906E+00               0
GRID*               1333               0-5.000000000E+00-3.786079967E+00+
*       -8.106808724E+00               0
GRID*               1334               0-5.000000000E+009.6011252377E-01+
*       7.6274380444E+00               0
GRID*               1335               0-5.000000000E+001.5133680677E+00+
*       8.7509563514E+00               0
GRID*               1336               0-5.000000000E+002.0658152986E+00+
*       9.8741919307E+00               0
GRID*               1337               0-5.000000000E+003.1143948112E+00+
*       9.8725009744E+00               0
GRID*               1338               0-5.000000000E+002.5615887311E+00+
*       8.7485011082E+00               0
GRID*               1339               0-5.000000000E+002.0088141402E+00+
*       7.6250676284E+00               0
GRID*               1340               0-5.000000000E+004.1637373623E+00+
*       9.8715471281E+00               0
GRID*               1341               0-5.000000000E+003.6109929814E+00+
*       8.7470565855E+00               0
GRID*               1342               0-5.000000000E+003.0587342090E+00+
*       7.6239581721E+00               0
GRID*               1343               0-5.000000000E+005.2136081878E+00+
*       9.8710124197E+00               0
GRID*               1344               0-5.000000000E+004.6613115302E+00+
*       8.7462889131E+00               0
GRID*               1345               0-5.000000000E+004.1096511554E+00+
*       7.6233930125E+00               0
GRID*               1346               0-5.000000000E+006.2637165003E+00+
*       9.8704104352E+00               0
GRID*               1347               0-5.000000000E+005.7122289445E+00+
*       8.7456195743E+00               0
GRID*               1348               0-5.000000000E+005.1613837438E+00+
*       7.6230020827E+00               0
GRID*               1349               0-5.000000000E+007.3142258042E+00+
*       9.8705802101E+00               0
GRID*               1350               0-5.000000000E+006.7637061201E+00+
*       8.7455982184E+00               0
GRID*               1351               0-5.000000000E+006.2138130258E+00+
*       7.6228985307E+00               0
GRID*               1352               0-5.000000000E+008.3649867015E+00+
*       9.8707027342E+00               0
GRID*               1353               0-5.000000000E+007.8156733737E+00+
*       8.7456097069E+00               0
GRID*               1354               0-5.000000000E+007.2669067567E+00+
*       7.6228774512E+00               0
GRID*               1355               0-5.000000000E+009.4159964244E+00+
*       9.8706877187E+00               0
GRID*               1356               0-5.000000000E+008.8681089445E+00+
*       8.7457223119E+00               0
GRID*               1357               0-5.000000000E+008.3206108097E+00+
*       7.6229414246E+00               0
GRID*               1358               0-5.000000000E+001.0467163123E+01+
*       9.8707151324E+00               0
GRID*               1359               0-5.000000000E+009.9208793649E+00+
*       8.7457065293E+00               0
GRID*               1360               0-5.000000000E+009.3748576603E+00+
*       7.6229429679E+00               0
GRID*               1361               0-5.000000000E+001.1518439788E+01+
*       9.8706567307E+00               0
GRID*               1362               0-5.000000000E+001.0973934360E+01+
*       8.7456818344E+00               0
GRID*               1363               0-5.000000000E+001.0429570973E+01+
*       7.6229469482E+00               0
GRID*               1364               0-5.000000000E+001.2569889030E+01+
*       9.8707732873E+00               0
GRID*               1365               0-5.000000000E+001.2027274191E+01+
*       8.7457866561E+00               0
GRID*               1366               0-5.000000000E+001.1484718304E+01+
*       7.6230040747E+00               0
GRID*               1367               0-5.000000000E+001.3621517943E+01+
*       9.8709417828E+00               0
GRID*               1368               0-5.000000000E+001.3080915395E+01+
*       8.7459345621E+00               0
GRID*               1369               0-5.000000000E+001.2540280776E+01+
*       7.6230740277E+00               0
GRID*               1370               0-5.000000000E+001.4678407382E+01+
*       9.8719052160E+00               0
GRID*               1371               0-5.000000000E+001.4139103598E+01+
*       8.7454967660E+00               0
GRID*               1372               0-5.000000000E+001.3597925607E+01+
*       7.6224807501E+00               0
GRID*               1373               0-5.000000000E+001.5756918589E+01+
*       9.8761912539E+00               0
GRID*               1374               0-5.000000000E+001.5216439007E+01+
*       8.7454318787E+00               0
GRID*               1375               0-5.000000000E+001.4663748801E+01+
*       7.6208399696E+00               0
GRID*               1376               0-5.000000000E+001.6877583996E+01+
*       9.8922420085E+00               0
GRID*               1377               0-5.000000000E+001.6341423129E+01+
*       8.7461529724E+00               0
GRID*               1378               0-5.000000000E+001.5748115207E+01+
*       7.6174831954E+00               0
GRID*               1379               0-5.000000000E+001.8019250924E+01+
*       9.9518206754E+00               0
GRID*               1380               0-5.000000000E+001.7620818800E+01+
*       8.7509096435E+00               0
GRID*               1381               0-5.000000000E+001.6872907266E+01+
*       7.6053280663E+00               0
GRID*               1382               0-5.000000000E+001.8015173077E+01+
*       7.5521474906E+00               0
GRID*               1383               0-5.000000000E+001.8620970071E+01+
*       8.3786801643E+00               0
GRID*               1384               0-5.000000000E+001.8622899612E+01+
*       9.1336028621E+00               0
GRID*               1385               0-5.000000000E+00-8.835382180E-02+
*       7.6289262206E+00               0
GRID*               1386               0-5.000000000E+004.6534711884E-01+
*       8.7532007892E+00               0
GRID*               1387               0-5.000000000E+001.0175265160E+00+
*       9.8759791626E+00               0
GRID*               1388               0-5.000000000E+00-1.136651741E+00+
*       7.6296915685E+00               0
GRID*               1389               0-5.000000000E+00-5.829219488E-01+
*       8.7543656132E+00               0
GRID*               1390               0-5.000000000E+00-3.103448129E-02+
*       9.8768862817E+00               0
GRID*               1391               0-5.000000000E+00-2.184567143E+00+
*       7.6300175356E+00               0
GRID*               1392               0-5.000000000E+00-1.631170038E+00+
*       8.7549225476E+00               0
GRID*               1393               0-5.000000000E+00-1.079684275E+00+
*       9.8773309920E+00               0
GRID*               1394               0-5.000000000E+00-3.231973583E+00+
*       7.6301129861E+00               0
GRID*               1395               0-5.000000000E+00-2.679213390E+00+
*       8.7551391996E+00               0
GRID*               1396               0-5.000000000E+00-2.128291296E+00+
*       9.8775234067E+00               0
GRID*               1397               0-5.000000000E+00-4.278810687E+00+
*       7.6300991453E+00               0
GRID*               1398               0-5.000000000E+00-3.726942898E+00+
*       8.7551768901E+00               0
GRID*               1399               0-5.000000000E+00-3.176771540E+00+
*       9.8775786921E+00               0
GRID*               1400               0-5.000000000E+00-5.325060552E+00+
*       7.6300373705E+00               0
GRID*               1401               0-5.000000000E+00-4.774305297E+00+
*       8.7551287975E+00               0
GRID*               1402               0-5.000000000E+00-4.225078043E+00+
*       9.8775628376E+00               0
GRID*               1403               0-5.000000000E+00-6.370729558E+00+
*       7.6299579137E+00               0
GRID*               1404               0-5.000000000E+00-5.821282852E+00+
*       8.7550439706E+00               0
GRID*               1405               0-5.000000000E+00-5.273189224E+00+
*       9.8775133970E+00               0
GRID*               1406               0-5.000000000E+00-7.415837442E+00+
*       7.6298752597E+00               0
GRID*               1407               0-5.000000000E+00-6.867877920E+00+
*       8.7549470435E+00               0
GRID*               1408               0-5.000000000E+00-6.321099195E+00+
*       9.8774505190E+00               0
GRID*               1409               0-5.000000000E+00-8.460411705E+00+
*       7.6297960669E+00               0
GRID*               1410               0-5.000000000E+00-7.914103716E+00+
*       8.7548500581E+00               0
GRID*               1411               0-5.000000000E+00-7.368811031E+00+
*       9.8773845235E+00               0
GRID*               1412               0-5.000000000E+00-9.504485024E+00+
*       7.6297233448E+00               0
GRID*               1413               0-5.000000000E+00-8.959979543E+00+
*       8.7547587889E+00               0
GRID*               1414               0-5.000000000E+00-8.416332795E+00+
*       9.8773205799E+00               0
GRID*               1415               0-5.000000000E+00-1.054809406E+01+
*       7.6296585307E+00               0
GRID*               1416               0-5.000000000E+00-1.000552854E+01+
*       8.7546760228E+00               0
GRID*               1417               0-5.000000000E+00-9.463675464E+00+
*       9.8772612809E+00               0
GRID*               1418               0-5.000000000E+00-1.159127887E+01+
*       7.6296024115E+00               0
GRID*               1419               0-5.000000000E+00-1.105077663E+01+
*       8.7546031942E+00               0
GRID*               1420               0-5.000000000E+00-1.051085192E+01+
*       9.8772079728E+00               0
GRID*               1421               0-5.000000000E+00-1.263403904E+01+
*       7.6296783079E+00               0
GRID*               1422               0-5.000000000E+00-1.209572316E+01+
*       8.7546401932E+00               0
GRID*               1423               0-5.000000000E+00-1.155786796E+01+
*       9.8772011750E+00               0
GRID*               1424               0-5.000000000E+00-1.367641319E+01+
*       7.6298122821E+00               0
GRID*               1425               0-5.000000000E+00-1.314037579E+01+
*       8.7547356593E+00               0
GRID*               1426               0-5.000000000E+00-1.260472241E+01+
*       9.8772245401E+00               0
GRID*               1427               0-5.000000000E+00-1.472574395E+01+
*       7.6391054258E+00               0
GRID*               1428               0-5.000000000E+00-1.419019796E+01+
*       8.7628265132E+00               0
GRID*               1429               0-5.000000000E+00-1.365363433E+01+
*       9.8808303410E+00               0
GRID*               1430               0-5.000000000E+00-1.579014567E+01+
*       7.6543123431E+00               0
GRID*               1431               0-5.000000000E+00-1.525232894E+01+
*       8.7784406416E+00               0
GRID*               1432               0-5.000000000E+00-1.470804915E+01+
*       9.8888073958E+00               0
GRID*               1433               0-5.000000000E+00-1.689846114E+01+
*       7.7042237845E+00               0
GRID*               1434               0-5.000000000E+00-1.633659792E+01+
*       8.8154030298E+00               0
GRID*               1435               0-5.000000000E+00-1.577146307E+01+
*       9.9037780471E+00               0
GRID*               1436               0-5.000000000E+00-1.819627155E+01+
*       7.8584036795E+00               0
GRID*               1437               0-5.000000000E+00-1.745445073E+01+
*       8.9009235302E+00               0
GRID*               1438               0-5.000000000E+00-1.685072463E+01+
*       9.9335394776E+00               0
GRID*               1439               0-5.000000000E+00-1.796066258E+01+
*       9.9699284370E+00               0
GRID*               1440               0-5.000000000E+00-1.848439817E+01+
*       9.0785983344E+00               0
GRID*               1441               0-3.315569023E+002.9861689734E+01+
*       -1.211551708E+01               0
GRID*               1442               03.5649730474E+002.0269959722E+01+
*       -1.207692140E+01               0
GRID*               1443               0-3.574634309E+002.0275536572E+01+
*       -1.207553842E+01               0
GRID*               1444               0-5.747953382E+002.3741985419E+01+
*       -1.211681029E+01               0
GRID*               1445               0-5.712931279E+002.6577746100E+01+
*       -1.207295706E+01               0
GRID*               1446               0-6.096065718E+002.5050148601E+01+
*       -1.190435061E+01               0
GRID*               1447               0-5.015218429E+002.8005291002E+01+
*       -1.215333596E+01               0
GRID*               1448               0-4.438050246E+002.9168934825E+01+
*       -1.191067533E+01               0
GRID*               1449               0-4.635462994E+002.1435426785E+01+
*       -1.215247822E+01               0
GRID*               1450               0-5.509801797E+002.2411596644E+01+
*       -1.191249716E+01               0
GRID*               1451               0-9.245595291E-011.9229780861E+01+
*       -1.215713081E+01               0
GRID*               1452               06.7574737557E-011.9113796998E+01+
*       -1.207487929E+01               0
GRID*               1453               02.2531776260E+001.9339115144E+01+
*       -1.190706600E+01               0
GRID*               1454               0-2.298931471E+001.9364643150E+01+
*       -1.191380151E+01               0
GRID*               1455               03.3045636993E+002.9867503699E+01+
*       -1.211669446E+01               0
GRID*               1456               0-9.187571741E-013.0775187996E+01+
*       -1.215313819E+01               0
GRID*               1457               0-2.256885302E+003.0655452367E+01+
*       -1.191113854E+01               0
GRID*               1458               06.7112752721E-013.0889609619E+01+
*       -1.207201893E+01               0
GRID*               1459               02.2138047747E+003.0678757728E+01+
*       -1.190498757E+01               0
GRID*               1460               05.7472476128E+002.3742855510E+01+
*       -1.211687534E+01               0
GRID*               1461               04.6371221003E+002.1437084572E+01+
*       -1.215204937E+01               0
GRID*               1462               05.5135413502E+002.2418779193E+01+
*       -1.191195025E+01               0
GRID*               1463               05.7180908626E+002.6559631346E+01+
*       -1.207287368E+01               0
GRID*               1464               06.0941234096E+002.5044292696E+01+
*       -1.190568842E+01               0
GRID*               1465               05.0155290697E+002.8006626144E+01+
*       -1.215277083E+01               0
GRID*               1466               04.4229915305E+002.9184289393E+01+
*       -1.191113829E+01               0
GRID*               1467               0-3.315568979E+002.9861689763E+01+
*       -5.384482920E+00               0
GRID*               1468               03.5649730235E+002.0269959724E+01+
*       -5.423078589E+00               0
GRID*               1469               0-3.574634280E+002.0275536536E+01+
*       -5.424461589E+00               0
GRID*               1470               0-5.747953329E+002.3741985434E+01+
*       -5.383189657E+00               0
GRID*               1471               0-5.712931204E+002.6577746080E+01+
*       -5.427042860E+00               0
GRID*               1472               0-6.096065602E+002.5050148571E+01+
*       -5.595649269E+00               0
GRID*               1473               0-5.015218443E+002.8005291004E+01+
*       -5.346664051E+00               0
GRID*               1474               0-4.438050251E+002.9168934864E+01+
*       -5.589324699E+00               0
GRID*               1475               0-4.635463028E+002.1435426739E+01+
*       -5.347521835E+00               0
GRID*               1476               0-5.509801820E+002.2411596615E+01+
*       -5.587502871E+00               0
GRID*               1477               0-9.245596279E-011.9229780816E+01+
*       -5.342869249E+00               0
GRID*               1478               06.7574729297E-011.9113796991E+01+
*       -5.425120709E+00               0
GRID*               1479               02.2531776066E+001.9339115143E+01+
*       -5.592933996E+00               0
GRID*               1480               0-2.298931488E+001.9364643135E+01+
*       -5.586198514E+00               0
GRID*               1481               03.3045637112E+002.9867503682E+01+
*       -5.383305530E+00               0
GRID*               1482               0-9.187572009E-013.0775188043E+01+
*       -5.346861856E+00               0
GRID*               1483               0-2.256885274E+003.0655452381E+01+
*       -5.588861458E+00               0
GRID*               1484               06.7112750301E-013.0889609625E+01+
*       -5.427981071E+00               0
GRID*               1485               02.2138047722E+003.0678757730E+01+
*       -5.595012431E+00               0
GRID*               1486               05.7472476408E+002.3742855562E+01+
*       -5.383124675E+00               0
GRID*               1487               04.6371220922E+002.1437084580E+01+
*       -5.347950617E+00               0
GRID*               1488               05.5135413693E+002.2418779238E+01+
*       -5.588049748E+00               0
GRID*               1489               05.7180908350E+002.6559631352E+01+
*       -5.427126293E+00               0
GRID*               1490               06.0941234013E+002.5044292706E+01+
*       -5.594311569E+00               0
GRID*               1491               05.0155290702E+002.8006626143E+01+
*       -5.347229174E+00               0
GRID*               1492               04.4229915347E+002.9184289376E+01+
*       -5.588861700E+00               0
GRID*               1493               0-1.949646411E+00-2.791746080E+01+
*       -1.300000000E+01               0
GRID*               1494               02.9180007432E+00-2.304977011E+01+
*       -1.300000000E+01               0
GRID*               1495               0-1.949514351E+00-2.208222680E+01+
*       -1.300000000E+01               0
GRID*               1496               0-3.441419917E+00-2.568448254E+01+
*       -1.300000000E+01               0
GRID*               1497               0-2.917426042E+00-2.694945458E+01+
*       -1.300000000E+01               0
GRID*               1498               0-2.917415367E+00-2.305044994E+01+
*       -1.300000000E+01               0
GRID*               1499               0-3.441308091E+00-2.431541306E+01+
*       -1.300000000E+01               0
GRID*               1500               06.8423946064E-01-2.155860855E+01+
*       -1.300000000E+01               0
GRID*               1501               01.9497289647E+00-2.208248988E+01+
*       -1.300000000E+01               0
GRID*               1502               0-6.848230487E-01-2.155862244E+01+
*       -1.300000000E+01               0
GRID*               1503               02.9174215301E+00-2.694962966E+01+
*       -1.300000000E+01               0
GRID*               1504               06.8459840264E-01-2.844114667E+01+
*       -1.300000000E+01               0
GRID*               1505               0-6.847757610E-01-2.844123362E+01+
*       -1.300000000E+01               0
GRID*               1506               01.9494663664E+00-2.791740780E+01+
*       -1.300000000E+01               0
GRID*               1507               03.4413189892E+00-2.431535468E+01+
*       -1.300000000E+01               0
GRID*               1508               03.4412012285E+00-2.568476581E+01+
*       -1.300000000E+01               0
GRID*               1509               0-1.949535561E+00-2.791744577E+01+
*       -4.500000000E+00               0
GRID*               1510               02.9173976330E+00-2.305040923E+01+
*       -4.500000000E+00               0
GRID*               1511               0-1.949514974E+00-2.208238415E+01+
*       -4.500000000E+00               0
GRID*               1512               0-3.441399513E+00-2.568419439E+01+
*       -4.500000000E+00               0
GRID*               1513               0-2.917423418E+00-2.694935731E+01+
*       -4.500000000E+00               0
GRID*               1514               0-3.441379645E+00-2.431539319E+01+
*       -4.500000000E+00               0
GRID*               1515               0-2.917379118E+00-2.305049242E+01+
*       -4.500000000E+00               0
GRID*               1516               06.8473818439E-01-2.155874188E+01+
*       -4.500000000E+00               0
GRID*               1517               01.9495085106E+00-2.208256613E+01+
*       -4.500000000E+00               0
GRID*               1518               0-6.846950408E-01-2.155873990E+01+
*       -4.500000000E+00               0
GRID*               1519               02.9180178543E+00-2.695024884E+01+
*       -4.500000000E+00               0
GRID*               1520               06.8404895840E-01-2.844137912E+01+
*       -4.500000000E+00               0
GRID*               1521               0-6.848706127E-01-2.844129143E+01+
*       -4.500000000E+00               0
GRID*               1522               01.9496796088E+00-2.791750710E+01+
*       -4.500000000E+00               0
GRID*               1523               03.4413242577E+00-2.568464620E+01+
*       -4.500000000E+00               0
GRID*               1524               03.4411956244E+00-2.431524247E+01+
*       -4.500000000E+00               0
GRID*               1525               0-1.949646411E+00-2.791746080E+01+
*       4.5000000000E+00               0
GRID*               1526               02.9180007432E+00-2.304977011E+01+
*       4.5000000000E+00               0
GRID*               1527               0-1.949514351E+00-2.208222680E+01+
*       4.5000000000E+00               0
GRID*               1528               0-3.441419917E+00-2.568448254E+01+
*       4.5000000000E+00               0
GRID*               1529               0-2.917426042E+00-2.694945458E+01+
*       4.5000000000E+00               0
GRID*               1530               0-2.917415367E+00-2.305044994E+01+
*       4.5000000000E+00               0
GRID*               1531               0-3.441308091E+00-2.431541306E+01+
*       4.5000000000E+00               0
GRID*               1532               06.8423946064E-01-2.155860855E+01+
*       4.5000000000E+00               0
GRID*               1533               01.9497289647E+00-2.208248988E+01+
*       4.5000000000E+00               0
GRID*               1534               0-6.848230487E-01-2.155862244E+01+
*       4.5000000000E+00               0
GRID*               1535               02.9174215301E+00-2.694962966E+01+
*       4.5000000000E+00               0
GRID*               1536               06.8459840264E-01-2.844114667E+01+
*       4.5000000000E+00               0
GRID*               1537               0-6.847757610E-01-2.844123362E+01+
*       4.5000000000E+00               0
GRID*               1538               01.9494663664E+00-2.791740780E+01+
*       4.5000000000E+00               0
GRID*               1539               03.4413189892E+00-2.431535468E+01+
*       4.5000000000E+00               0
GRID*               1540               03.4412012285E+00-2.568476581E+01+
*       4.5000000000E+00               0
GRID*               1541               0-1.949535561E+00-2.791744577E+01+
*       1.3000000000E+01               0
GRID*               1542               02.9173976330E+00-2.305040923E+01+
*       1.3000000000E+01               0
GRID*               1543               0-1.949514974E+00-2.208238415E+01+
*       1.3000000000E+01               0
GRID*               1544               0-3.441399513E+00-2.568419439E+01+
*       1.3000000000E+01               0
GRID*               1545               0-2.917423418E+00-2.694935731E+01+
*       1.3000000000E+01               0
GRID*               1546               0-3.441379645E+00-2.431539319E+01+
*       1.3000000000E+01               0
GRID*               1547               0-2.917379118E+00-2.305049242E+01+
*       1.3000000000E+01               0
GRID*               1548               06.8473818439E-01-2.155874188E+01+
*       1.3000000000E+01               0
GRID*               1549               01.9495085106E+00-2.208256613E+01+
*       1.3000000000E+01               0
GRID*               1550               0-6.846950408E-01-2.155873990E+01+
*       1.3000000000E+01               0
GRID*               1551               02.9180178543E+00-2.695024884E+01+
*       1.3000000000E+01               0
GRID*               1552               06.8404895840E-01-2.844137912E+01+
*       1.3000000000E+01               0
GRID*               1553               0-6.848706127E-01-2.844129143E+01+
*       1.3000000000E+01               0
GRID*               1554               01.9496796088E+00-2.791750710E+01+
*       1.3000000000E+01               0
GRID*               1555               03.4413242577E+00-2.568464620E+01+
*       1.3000000000E+01               0
GRID*               1556               03.4411956244E+00-2.431524247E+01+
*       1.3000000000E+01               0
GRID*               1557               0-1.949646411E+002.7917460801E+01+
*       -4.500000000E+00               0
GRID*               1558               02.9180007432E+002.3049770114E+01+
*       -4.500000000E+00               0
GRID*               1559               0-1.949514351E+002.2082226796E+01+
*       -4.500000000E+00               0
GRID*               1560               0-3.441419917E+002.5684482544E+01+
*       -4.500000000E+00               0
GRID*               1561               0-2.917426042E+002.6949454579E+01+
*       -4.500000000E+00               0
GRID*               1562               0-2.917415367E+002.3050449936E+01+
*       -4.500000000E+00               0
GRID*               1563               0-3.441308091E+002.4315413062E+01+
*       -4.500000000E+00               0
GRID*               1564               06.8423946064E-012.1558608554E+01+
*       -4.500000000E+00               0
GRID*               1565               01.9497289647E+002.2082489875E+01+
*       -4.500000000E+00               0
GRID*               1566               0-6.848230487E-012.1558622444E+01+
*       -4.500000000E+00               0
GRID*               1567               02.9174215301E+002.6949629658E+01+
*       -4.500000000E+00               0
GRID*               1568               06.8459840264E-012.8441146674E+01+
*       -4.500000000E+00               0
GRID*               1569               0-6.847757610E-012.8441233621E+01+
*       -4.500000000E+00               0
GRID*               1570               01.9494663664E+002.7917407796E+01+
*       -4.500000000E+00               0
GRID*               1571               03.4413189892E+002.4315354678E+01+
*       -4.500000000E+00               0
GRID*               1572               03.4412012285E+002.5684765813E+01+
*       -4.500000000E+00               0
GRID*               1573               0-1.949535561E+002.7917445771E+01+
*       4.5000000000E+00               0
GRID*               1574               02.9173976330E+002.3050409235E+01+
*       4.5000000000E+00               0
GRID*               1575               0-1.949514974E+002.2082384150E+01+
*       4.5000000000E+00               0
GRID*               1576               0-3.441399513E+002.5684194393E+01+
*       4.5000000000E+00               0
GRID*               1577               0-2.917423418E+002.6949357308E+01+
*       4.5000000000E+00               0
GRID*               1578               0-3.441379645E+002.4315393190E+01+
*       4.5000000000E+00               0
GRID*               1579               0-2.917379118E+002.3050492424E+01+
*       4.5000000000E+00               0
GRID*               1580               06.8473818439E-012.1558741881E+01+
*       4.5000000000E+00               0
GRID*               1581               01.9495085106E+002.2082566133E+01+
*       4.5000000000E+00               0
GRID*               1582               0-6.846950408E-012.1558739905E+01+
*       4.5000000000E+00               0
GRID*               1583               02.9180178543E+002.6950248843E+01+
*       4.5000000000E+00               0
GRID*               1584               06.8404895840E-012.8441379119E+01+
*       4.5000000000E+00               0
GRID*               1585               0-6.848706127E-012.8441291433E+01+
*       4.5000000000E+00               0
GRID*               1586               01.9496796088E+002.7917507099E+01+
*       4.5000000000E+00               0
GRID*               1587               03.4413242577E+002.5684646195E+01+
*       4.5000000000E+00               0
GRID*               1588               03.4411956244E+002.4315242468E+01+
*       4.5000000000E+00               0
GRID*               1589               0-7.466829355E+00-2.429552403E+01+
*       -9.509387755E+00               0
GRID*               1590               0-7.352601470E+00-2.352049976E+01+
*       -8.016688276E+00               0
GRID*               1591               0-6.754601780E+00-2.174034667E+01+
*       -8.050706186E+00               0
GRID*               1592               0-7.058470329E+00-2.246472098E+01+
*       -9.531054007E+00               0
GRID*               1593               0-6.268490039E+00-2.088227927E+01+
*       -9.596871232E+00               0
GRID*               1594               0-5.821265860E+00-2.027108291E+01+
*       -8.142666903E+00               0
GRID*               1595               0-7.398952056E+00-2.622688947E+01+
*       -9.502888194E+00               0
GRID*               1596               0-7.486684251E+00-2.544626756E+01+
*       -8.004918872E+00               0
GRID*               1597               0-6.833512431E+00-2.809075167E+01+
*       -9.501036027E+00               0
GRID*               1598               0-7.117444560E+00-2.736473628E+01+
*       -8.001500815E+00               0
GRID*               1599               0-5.805061336E+00-2.974880638E+01+
*       -9.500470349E+00               0
GRID*               1600               0-6.261485413E+00-2.912837457E+01+
*       -8.000497520E+00               0
GRID*               1601               0-4.382687203E+00-3.108619007E+01+
*       -9.500385102E+00               0
GRID*               1602               0-4.976223293E+00-3.061131605E+01+
*       -8.000233678E+00               0
GRID*               1603               0-2.663314193E+00-3.201116519E+01+
*       -9.500347536E+00               0
GRID*               1604               0-3.349683691E+00-3.171040161E+01+
*       -8.000213797E+00               0
GRID*               1605               0-7.635376783E-01-3.246103342E+01+
*       -9.500314122E+00               0
GRID*               1606               0-1.493953791E+00-3.234967597E+01+
*       -8.000134076E+00               0
GRID*               1607               01.1681212200E+00-3.240844998E+01+
*       -9.520438803E+00               0
GRID*               1608               04.5421384317E-01-3.248622071E+01+
*       -8.012705716E+00               0
GRID*               1609               02.9618646854E+00-3.189035744E+01+
*       -9.584326323E+00               0
GRID*               1610               02.3441686785E+00-3.212423173E+01+
*       -8.057897070E+00               0
GRID*               1611               04.3455095857E+00-3.111279548E+01+
*       -9.725600102E+00               0
GRID*               1612               04.0428377760E+00-3.131704616E+01+
*       -8.197185012E+00               0
GRID*               1613               05.6114682978E+00-2.997607092E+01+
*       -8.806396973E+00               0
GRID*               1614               06.8455684152E+00-2.806394810E+01+
*       -8.761646842E+00               0
GRID*               1615               07.4198823911E+00-2.609325851E+01+
*       -8.741152391E+00               0
GRID*               1616               07.4140153069E+00-2.386776697E+01+
*       -8.707912096E+00               0
GRID*               1617               06.8996556445E+00-2.205986525E+01+
*       -9.355782089E+00               0
GRID*               1618               06.9972653115E+00-2.230039874E+01+
*       -7.812815967E+00               0
GRID*               1619               06.4115955990E+00-2.110884939E+01+
*       -8.031470456E+00               0
GRID*               1620               05.6153982014E+00-2.002839028E+01+
*       -8.408208181E+00               0
GRID*               1621               06.1350427726E+00-2.068595411E+01+
*       -9.607292245E+00               0
GRID*               1622               07.3916297552E+00-2.372980855E+01+
*       9.3030457841E+00               0
GRID*               1623               07.4370208688E+00-2.403028279E+01+
*       7.7737897518E+00               0
GRID*               1624               06.4273901748E+00-2.113500059E+01+
*       7.9797186065E+00               0
GRID*               1625               06.8944609491E+00-2.204770007E+01+
*       9.4356570049E+00               0
GRID*               1626               07.0981724713E+00-2.257811243E+01+
*       7.9134804119E+00               0
GRID*               1627               05.9886558324E+00-2.048491437E+01+
*       9.4520226643E+00               0
GRID*               1628               05.6741439702E+00-2.009554502E+01+
*       8.0845032544E+00               0
GRID*               1629               07.4656078327E+00-2.571730083E+01+
*       8.6935541621E+00               0
GRID*               1630               06.9204484944E+00-2.789084132E+01+
*       8.7408698542E+00               0
GRID*               1631               05.9148635709E+00-2.961130023E+01+
*       8.7482415346E+00               0
GRID*               1632               04.5238769998E+00-3.098200165E+01+
*       8.7495171794E+00               0
GRID*               1633               02.8332169139E+00-3.194424025E+01+
*       8.7497062114E+00               0
GRID*               1634               09.5335851675E-01-3.243914770E+01+
*       8.7497098002E+00               0
GRID*               1635               0-9.906277188E-01-3.243427336E+01+
*       8.7497724109E+00               0
GRID*               1636               0-2.867625678E+00-3.193010161E+01+
*       8.7497169789E+00               0
GRID*               1637               0-4.552259401E+00-3.096043508E+01+
*       8.7497272062E+00               0
GRID*               1638               0-5.931244186E+00-2.959020855E+01+
*       8.7496348968E+00               0
GRID*               1639               0-6.914475894E+00-2.790509832E+01+
*       8.7509536536E+00               0
GRID*               1640               0-7.434731192E+00-2.598729368E+01+
*       8.7563121498E+00               0
GRID*               1641               0-7.399668329E+00-2.377750392E+01+
*       8.8084508256E+00               0
GRID*               1642               0-6.373827822E+00-2.104728962E+01+
*       9.5806718273E+00               0
GRID*               1643               0-6.855972907E+00-2.195937622E+01+
*       8.2030248367E+00               0
GRID*               1644               0-6.966133868E+00-2.222103294E+01+
*       9.7287082825E+00               0
GRID*               1645               0-5.654168549E+00-2.007253065E+01+
*       9.4408072440E+00               0
GRID*               1646               0-5.967780130E+00-2.045735807E+01+
*       8.0857964149E+00               0
GRID*               1647               0-3.280723621E+002.4176950986E+01+
*       -1.300000000E+01               0
GRID*               1648               0-1.565557195E+002.3577820110E+01+
*       -1.300000000E+01               0
GRID*               1649               0-2.049727336E-022.3361813393E+01+
*       -1.300000000E+01               0
GRID*               1650               01.2825874780E+002.2144561087E+01+
*       -1.300000000E+01               0
GRID*               1651               0-9.338098230E-012.1837874790E+01+
*       -1.300000000E+01               0
GRID*               1652               0-1.821260388E+002.7358526513E+01+
*       -1.300000000E+01               0
GRID*               1653               0-1.782030101E+002.5418595790E+01+
*       -1.300000000E+01               0
GRID*               1654               0-3.322786013E+002.6210180759E+01+
*       -1.300000000E+01               0
GRID*               1655               01.3370296690E+002.4276095475E+01+
*       -1.300000000E+01               0
GRID*               1656               02.8992283211E+002.5550171101E+01+
*       -1.300000000E+01               0
GRID*               1657               03.0938086308E+002.3593966963E+01+
*       -1.300000000E+01               0
GRID*               1658               0-5.353024709E-012.6326865785E+01+
*       -1.300000000E+01               0
GRID*               1659               09.9707854559E-012.6066061169E+01+
*       -1.300000000E+01               0
GRID*               1660               0-2.636917324E-012.4839667558E+01+
*       -1.300000000E+01               0
GRID*               1661               02.3392582276E+002.7440778662E+01+
*       -1.300000000E+01               0
GRID*               1662               01.4764024937E-012.8046613338E+01+
*       -1.300000000E+01               0
GRID*               1663               01.2849521855E+002.2152822601E+01+
*       1.3000000000E+01               0
GRID*               1664               0-2.696545870E-022.3378875606E+01+
*       1.3000000000E+01               0
GRID*               1665               0-1.581748297E+002.3588955108E+01+
*       1.3000000000E+01               0
GRID*               1666               0-3.293228430E+002.4182355549E+01+
*       1.3000000000E+01               0
GRID*               1667               0-9.379246671E-012.1844022765E+01+
*       1.3000000000E+01               0
GRID*               1668               0-1.794261934E+002.5426323850E+01+
*       1.3000000000E+01               0
GRID*               1669               0-1.836062469E+002.7358532423E+01+
*       1.3000000000E+01               0
GRID*               1670               0-3.329333653E+002.6212089813E+01+
*       1.3000000000E+01               0
GRID*               1671               02.9014139280E+002.5561272818E+01+
*       1.3000000000E+01               0
GRID*               1672               01.3316937016E+002.4287936930E+01+
*       1.3000000000E+01               0
GRID*               1673               03.0936344165E+002.3599225300E+01+
*       1.3000000000E+01               0
GRID*               1674               09.9460829340E-012.6078906669E+01+
*       1.3000000000E+01               0
GRID*               1675               0-5.507189281E-012.6331021095E+01+
*       1.3000000000E+01               0
GRID*               1676               0-2.732562801E-012.4850152804E+01+
*       1.3000000000E+01               0
GRID*               1677               02.3383248675E+002.7445328243E+01+
*       1.3000000000E+01               0
GRID*               1678               01.4257335568E-012.8049636411E+01+
*       1.3000000000E+01               0
GRID*               1679               07.4668142989E+002.4295364605E+01+
*       -9.509388950E+00               0
GRID*               1680               07.3525883702E+002.3520434664E+01+
*       -8.016689372E+00               0
GRID*               1681               06.7545840861E+002.1740309996E+01+
*       -8.050707350E+00               0
GRID*               1682               07.0584340513E+002.2464619995E+01+
*       -9.531055455E+00               0
GRID*               1683               06.2684586651E+002.0882231500E+01+
*       -9.596873368E+00               0
GRID*               1684               05.8212557136E+002.0271070421E+01+
*       -8.142667837E+00               0
GRID*               1685               07.3989864491E+002.6226682134E+01+
*       -9.502889407E+00               0
GRID*               1686               07.4866897138E+002.5446175845E+01+
*       -8.004919627E+00               0
GRID*               1687               06.8336194318E+002.8090515062E+01+
*       -9.501037387E+00               0
GRID*               1688               07.1174814280E+002.7364625327E+01+
*       -8.001501594E+00               0
GRID*               1689               05.8052574185E+002.9748566635E+01+
*       -9.500471661E+00               0
GRID*               1690               06.2615633725E+002.9128256328E+01+
*       -8.000498426E+00               0
GRID*               1691               04.3829788638E+003.1085980058E+01+
*       -9.500386448E+00               0
GRID*               1692               04.9763480351E+003.0611205409E+01+
*       -8.000234579E+00               0
GRID*               1693               02.6636959973E+003.2011020136E+01+
*       -9.500349104E+00               0
GRID*               1694               03.3498551458E+003.1710316037E+01+
*       -8.000214743E+00               0
GRID*               1695               07.6399406002E-013.2460986683E+01+
*       -9.500315584E+00               0
GRID*               1696               01.4941657178E+003.2349632895E+01+
*       -8.000135145E+00               0
GRID*               1697               0-1.167607033E+003.2408531064E+01+
*       -9.520445440E+00               0
GRID*               1698               0-4.539653861E-013.2486235758E+01+
*       -8.012710993E+00               0
GRID*               1699               0-2.961322060E+003.1890590646E+01+
*       -9.584341779E+00               0
GRID*               1700               0-2.343892583E+003.2124322594E+01+
*       -8.057910806E+00               0
GRID*               1701               0-4.344967145E+003.1113181065E+01+
*       -9.725625891E+00               0
GRID*               1702               0-4.042546404E+003.1317232634E+01+
*       -8.197202701E+00               0
GRID*               1703               0-5.611130287E+002.9976452005E+01+
*       -8.806413668E+00               0
GRID*               1704               0-6.845349842E+002.8064436383E+01+
*       -8.761650306E+00               0
GRID*               1705               0-7.419801383E+002.6093807857E+01+
*       -8.741150250E+00               0
GRID*               1706               0-7.414097708E+002.3868306731E+01+
*       -8.707887110E+00               0
GRID*               1707               0-6.899894632E+002.2060426185E+01+
*       -9.355731615E+00               0
GRID*               1708               0-6.997361325E+002.2300647608E+01+
*       -7.812778875E+00               0
GRID*               1709               0-6.411714536E+002.1109045355E+01+
*       -8.031409479E+00               0
GRID*               1710               0-5.615468705E+002.0028469912E+01+
*       -8.408052511E+00               0
GRID*               1711               0-6.135272366E+002.0686280680E+01+
*       -9.607200413E+00               0
GRID*               1712               07.3953795864E+002.3751821520E+01+
*       8.6980575809E+00               0
GRID*               1713               06.8403451883E+002.1924380948E+01+
*       9.2975721905E+00               0
GRID*               1714               06.3605933191E+002.1026031696E+01+
*       7.9190426294E+00               0
GRID*               1715               06.9586475768E+002.2202357302E+01+
*       7.7723726540E+00               0
GRID*               1716               05.9347637890E+002.0412988406E+01+
*       9.4140866459E+00               0
GRID*               1717               05.6497228075E+002.0027607210E+01+
*       8.0583723247E+00               0
GRID*               1718               0-7.406487759E+002.3819526116E+01+
*       8.6947571659E+00               0
GRID*               1719               0-6.389196999E+002.1072182691E+01+
*       7.9243934254E+00               0
GRID*               1720               0-6.867323511E+002.1985104691E+01+
*       9.2990760516E+00               0
GRID*               1721               0-6.982003191E+002.2261153175E+01+
*       7.7736950851E+00               0
GRID*               1722               0-5.975514918E+002.0467537167E+01+
*       9.4206978129E+00               0
GRID*               1723               0-5.662200499E+002.0081761866E+01+
*       8.0663586880E+00               0
GRID*               1724               07.4387913180E+002.5956230707E+01+
*       8.7415017457E+00               0
GRID*               1725               0-7.429033029E+002.6029276129E+01+
*       8.7407177510E+00               0
GRID*               1726               06.9256638808E+002.7878323821E+01+
*       8.7481978555E+00               0
GRID*               1727               0-6.896797241E+002.7946823871E+01+
*       8.7480991393E+00               0
GRID*               1728               05.9476406214E+002.9568940479E+01+
*       8.7493469235E+00               0
GRID*               1729               0-5.901916614E+002.9627861856E+01+
*       8.7492263661E+00               0
GRID*               1730               04.5709542000E+003.0946112874E+01+
*       8.7494508892E+00               0
GRID*               1731               0-4.511581738E+003.0991278445E+01+
*       8.7494883657E+00               0
GRID*               1732               02.8873309118E+003.1921914531E+01+
*       8.7494645657E+00               0
GRID*               1733               0-2.818505830E+003.1950224166E+01+
*       8.7494660037E+00               0
GRID*               1734               01.0098952477E+003.2431678936E+01+
*       8.7495092310E+00               0
GRID*               1735               0-9.359214066E-013.2441363089E+01+
*       8.7494691531E+00               0
GRID*               1736               02.3095172924E+00-2.404287223E+01+
*       -1.193750060E+01               0
GRID*               1737               01.7679591676E+00-2.323242528E+01+
*       -1.193750000E+01               0
GRID*               1738               09.5673869136E-01-2.269034748E+01+
*       -1.193750396E+01               0
GRID*               1739               0-7.294003650E-04-2.250000011E+01+
*       -1.193750000E+01               0
GRID*               1740               0-9.567141707E-01-2.269030483E+01+
*       -1.193750011E+01               0
GRID*               1741               0-1.767498196E+00-2.323196433E+01+
*       -1.193750000E+01               0
GRID*               1742               0-2.309839648E+00-2.404368310E+01+
*       -1.193750214E+01               0
GRID*               1743               0-2.500000000E+00-2.500000007E+01+
*       -1.193750000E+01               0
GRID*               1744               0-2.309812314E+00-2.595638556E+01+
*       -1.193750290E+01               0
GRID*               1745               0-1.767498103E+00-2.676803576E+01+
*       -1.193750000E+01               0
GRID*               1746               0-9.567107905E-01-2.730969636E+01+
*       -1.193750005E+01               0
GRID*               1747               0-7.293438506E-04-2.749999989E+01+
*       -1.193750000E+01               0
GRID*               1748               09.5683494591E-01-2.730961291E+01+
*       -1.193750397E+01               0
GRID*               1749               01.7679591671E+00-2.676757472E+01+
*       -1.193750000E+01               0
GRID*               1750               02.3095328885E+00-2.595709350E+01+
*       -1.193750153E+01               0
GRID*               1751               02.3095071220E+00-2.404284988E+01+
*       -1.087500199E+01               0
GRID*               1752               01.7679591675E+00-2.323242528E+01+
*       -1.087500000E+01               0
GRID*               1753               09.5665084961E-01-2.269031113E+01+
*       -1.087501119E+01               0
GRID*               1754               0-7.294007158E-04-2.250000011E+01+
*       -1.087500000E+01               0
GRID*               1755               0-9.566992457E-01-2.269029959E+01+
*       -1.087499941E+01               0
GRID*               1756               0-1.767498196E+00-2.323196433E+01+
*       -1.087500000E+01               0
GRID*               1757               0-2.309863171E+00-2.404374219E+01+
*       -1.087500648E+01               0
GRID*               1758               0-2.500000000E+00-2.500000007E+01+
*       -1.087500000E+01               0
GRID*               1759               0-2.309787868E+00-2.595644697E+01+
*       -1.087500741E+01               0
GRID*               1760               0-1.767498103E+00-2.676803576E+01+
*       -1.087500000E+01               0
GRID*               1761               0-9.567081506E-01-2.730969729E+01+
*       -1.087500017E+01               0
GRID*               1762               0-7.293432192E-04-2.749999989E+01+
*       -1.087500000E+01               0
GRID*               1763               09.5692280507E-01-2.730957658E+01+
*       -1.087501120E+01               0
GRID*               1764               01.7679591672E+00-2.676757472E+01+
*       -1.087500000E+01               0
GRID*               1765               02.3095388573E+00-2.595708038E+01+
*       -1.087500234E+01               0
GRID*               1766               02.3094963016E+00-2.404282610E+01+
*       -9.812503458E+00               0
GRID*               1767               01.7679591674E+00-2.323242528E+01+
*       -9.812500000E+00               0
GRID*               1768               09.5662153656E-01-2.269029900E+01+
*       -9.812513604E+00               0
GRID*               1769               0-7.294012369E-04-2.250000011E+01+
*       -9.812500000E+00               0
GRID*               1770               0-9.566982199E-01-2.269029923E+01+
*       -9.812499358E+00               0
GRID*               1771               0-1.767498196E+00-2.323196433E+01+
*       -9.812500000E+00               0
GRID*               1772               0-2.309879021E+00-2.404378201E+01+
*       -9.812509405E+00               0
GRID*               1773               0-2.500000000E+00-2.500000007E+01+
*       -9.812500000E+00               0
GRID*               1774               0-2.309794211E+00-2.595643103E+01+
*       -9.812506237E+00               0
GRID*               1775               0-1.767498103E+00-2.676803576E+01+
*       -9.812500000E+00               0
GRID*               1776               0-9.567045550E-01-2.730969855E+01+
*       -9.812500342E+00               0
GRID*               1777               0-7.293425109E-04-2.749999989E+01+
*       -9.812500000E+00               0
GRID*               1778               09.5695192993E-01-2.730956453E+01+
*       -9.812513592E+00               0
GRID*               1779               01.7679591673E+00-2.676757472E+01+
*       -9.812500000E+00               0
GRID*               1780               02.3095051629E+00-2.595715443E+01+
*       -9.812497752E+00               0
GRID*               1781               02.3094917541E+00-2.404281610E+01+
*       -8.750004074E+00               0
GRID*               1782               01.7679591673E+00-2.323242528E+01+
*       -8.750000000E+00               0
GRID*               1783               09.5678633372E-01-2.269036719E+01+
*       -8.750000032E+00               0
GRID*               1784               0-7.294018755E-04-2.250000011E+01+
*       -8.750000000E+00               0
GRID*               1785               0-9.567008769E-01-2.269030016E+01+
*       -8.749999483E+00               0
GRID*               1786               0-1.767498196E+00-2.323196433E+01+
*       -8.750000000E+00               0
GRID*               1787               0-2.309860224E+00-2.404373479E+01+
*       -8.750005934E+00               0
GRID*               1788               0-2.500000000E+00-2.500000007E+01+
*       -8.750000000E+00               0
GRID*               1789               0-2.309860173E+00-2.595626533E+01+
*       -8.749994066E+00               0
GRID*               1790               0-1.767498103E+00-2.676803576E+01+
*       -8.750000000E+00               0
GRID*               1791               0-9.567008213E-01-2.730969986E+01+
*       -8.750000517E+00               0
GRID*               1792               0-7.293418086E-04-2.749999989E+01+
*       -8.750000000E+00               0
GRID*               1793               09.5678648809E-01-2.730963295E+01+
*       -8.749999968E+00               0
GRID*               1794               01.7679591673E+00-2.676757472E+01+
*       -8.750000000E+00               0
GRID*               1795               02.3094917541E+00-2.595718390E+01+
*       -8.749995926E+00               0
GRID*               1796               02.3095051629E+00-2.404284557E+01+
*       -7.687502248E+00               0
GRID*               1797               01.7679591673E+00-2.323242528E+01+
*       -7.687500000E+00               0
GRID*               1798               09.5695176505E-01-2.269043563E+01+
*       -7.687486408E+00               0
GRID*               1799               0-7.294025780E-04-2.250000011E+01+
*       -7.687500000E+00               0
GRID*               1800               0-9.567046106E-01-2.269030147E+01+
*       -7.687499658E+00               0
GRID*               1801               0-1.767498196E+00-2.323196433E+01+
*       -7.687500000E+00               0
GRID*               1802               0-2.309794261E+00-2.404356909E+01+
*       -7.687493763E+00               0
GRID*               1803               0-2.500000000E+00-2.500000007E+01+
*       -7.687500000E+00               0
GRID*               1804               0-2.309878970E+00-2.595621812E+01+
*       -7.687490595E+00               0
GRID*               1805               0-1.767498103E+00-2.676803576E+01+
*       -7.687500000E+00               0
GRID*               1806               0-9.566981643E-01-2.730970079E+01+
*       -7.687500642E+00               0
GRID*               1807               0-7.293411701E-04-2.749999989E+01+
*       -7.687500000E+00               0
GRID*               1808               09.5662167835E-01-2.730970111E+01+
*       -7.687486396E+00               0
GRID*               1809               01.7679591674E+00-2.676757472E+01+
*       -7.687500000E+00               0
GRID*               1810               02.3094963016E+00-2.595717390E+01+
*       -7.687496542E+00               0
GRID*               1811               02.3095388573E+00-2.404291962E+01+
*       -6.624997660E+00               0
GRID*               1812               01.7679591672E+00-2.323242528E+01+
*       -6.625000000E+00               0
GRID*               1813               09.5692264255E-01-2.269042358E+01+
*       -6.624988802E+00               0
GRID*               1814               0-7.294032864E-04-2.250000011E+01+
*       -6.625000000E+00               0
GRID*               1815               0-9.567082061E-01-2.269030274E+01+
*       -6.624999828E+00               0
GRID*               1816               0-1.767498196E+00-2.323196433E+01+
*       -6.625000000E+00               0
GRID*               1817               0-2.309787919E+00-2.404355316E+01+
*       -6.624992589E+00               0
GRID*               1818               0-2.500000000E+00-2.500000007E+01+
*       -6.625000000E+00               0
GRID*               1819               0-2.309863120E+00-2.595625793E+01+
*       -6.624993516E+00               0
GRID*               1820               0-1.767498103E+00-2.676803576E+01+
*       -6.625000000E+00               0
GRID*               1821               0-9.566991901E-01-2.730970043E+01+
*       -6.625000594E+00               0
GRID*               1822               0-7.293406491E-04-2.749999989E+01+
*       -6.625000000E+00               0
GRID*               1823               09.5665099313E-01-2.730968898E+01+
*       -6.624988806E+00               0
GRID*               1824               01.7679591675E+00-2.676757472E+01+
*       -6.625000000E+00               0
GRID*               1825               02.3095071220E+00-2.595715012E+01+
*       -6.624998013E+00               0
GRID*               1826               02.3095328885E+00-2.404290650E+01+
*       -5.562498470E+00               0
GRID*               1827               01.7679591671E+00-2.323242528E+01+
*       -5.562500000E+00               0
GRID*               1828               09.5683478952E-01-2.269038724E+01+
*       -5.562496035E+00               0
GRID*               1829               0-7.294039179E-04-2.250000011E+01+
*       -5.562500000E+00               0
GRID*               1830               0-9.567108461E-01-2.269030367E+01+
*       -5.562499952E+00               0
GRID*               1831               0-1.767498196E+00-2.323196433E+01+
*       -5.562500000E+00               0
GRID*               1832               0-2.309812365E+00-2.404361457E+01+
*       -5.562497098E+00               0
GRID*               1833               0-2.500000000E+00-2.500000007E+01+
*       -5.562500000E+00               0
GRID*               1834               0-2.309839597E+00-2.595631702E+01+
*       -5.562497856E+00               0
GRID*               1835               0-1.767498102E+00-2.676803576E+01+
*       -5.562500000E+00               0
GRID*               1836               0-9.567141152E-01-2.730969519E+01+
*       -5.562499891E+00               0
GRID*               1837               0-7.293402983E-04-2.749999989E+01+
*       -5.562500000E+00               0
GRID*               1838               09.5673884104E-01-2.730965265E+01+
*       -5.562496038E+00               0
GRID*               1839               01.7679591676E+00-2.676757472E+01+
*       -5.562500000E+00               0
GRID*               1840               02.3095172924E+00-2.595712777E+01+
*       -5.562499397E+00               0
GRID*               1841               02.3095172924E+00-2.404287223E+01+
*       5.5624993972E+00               0
GRID*               1842               01.7679591676E+00-2.323242528E+01+
*       5.5625000000E+00               0
GRID*               1843               09.5673869136E-01-2.269034748E+01+
*       5.5624960378E+00               0
GRID*               1844               0-7.294003650E-04-2.250000011E+01+
*       5.5625000000E+00               0
GRID*               1845               0-9.567141707E-01-2.269030483E+01+
*       5.5624998914E+00               0
GRID*               1846               0-1.767498196E+00-2.323196433E+01+
*       5.5625000000E+00               0
GRID*               1847               0-2.309839648E+00-2.404368310E+01+
*       5.5624978557E+00               0
GRID*               1848               0-2.500000000E+00-2.500000007E+01+
*       5.5625000000E+00               0
GRID*               1849               0-2.309812314E+00-2.595638556E+01+
*       5.5624970978E+00               0
GRID*               1850               0-1.767498103E+00-2.676803576E+01+
*       5.5625000000E+00               0
GRID*               1851               0-9.567107905E-01-2.730969636E+01+
*       5.5624999521E+00               0
GRID*               1852               0-7.293438506E-04-2.749999989E+01+
*       5.5625000001E+00               0
GRID*               1853               09.5683494591E-01-2.730961291E+01+
*       5.5624960347E+00               0
GRID*               1854               01.7679591676E+00-2.676757472E+01+
*       5.5625000000E+00               0
GRID*               1855               02.3095328885E+00-2.595709350E+01+
*       5.5624984698E+00               0
GRID*               1856               02.3095071220E+00-2.404284988E+01+
*       6.6249980127E+00               0
GRID*               1857               01.7679591675E+00-2.323242528E+01+
*       6.6250000000E+00               0
GRID*               1858               09.5665084961E-01-2.269031113E+01+
*       6.6249888060E+00               0
GRID*               1859               0-7.294007158E-04-2.250000011E+01+
*       6.6250000000E+00               0
GRID*               1860               0-9.566992457E-01-2.269029959E+01+
*       6.6250005938E+00               0
GRID*               1861               0-1.767498196E+00-2.323196433E+01+
*       6.6250000000E+00               0
GRID*               1862               0-2.309863171E+00-2.404374219E+01+
*       6.6249935161E+00               0
GRID*               1863               0-2.500000000E+00-2.500000007E+01+
*       6.6250000000E+00               0
GRID*               1864               0-2.309787868E+00-2.595644697E+01+
*       6.6249925892E+00               0
GRID*               1865               0-1.767498103E+00-2.676803576E+01+
*       6.6250000000E+00               0
GRID*               1866               0-9.567081506E-01-2.730969729E+01+
*       6.6249998277E+00               0
GRID*               1867               0-7.293432192E-04-2.749999989E+01+
*       6.6250000001E+00               0
GRID*               1868               09.5692280507E-01-2.730957658E+01+
*       6.6249888019E+00               0
GRID*               1869               01.7679591675E+00-2.676757472E+01+
*       6.6250000000E+00               0
GRID*               1870               02.3095388573E+00-2.595708038E+01+
*       6.6249976604E+00               0
GRID*               1871               02.3094963016E+00-2.404282610E+01+
*       7.6874965421E+00               0
GRID*               1872               01.7679591674E+00-2.323242528E+01+
*       7.6875000000E+00               0
GRID*               1873               09.5662153656E-01-2.269029900E+01+
*       7.6874863961E+00               0
GRID*               1874               0-7.294012369E-04-2.250000011E+01+
*       7.6875000000E+00               0
GRID*               1875               0-9.566982199E-01-2.269029923E+01+
*       7.6875006422E+00               0
GRID*               1876               0-1.767498196E+00-2.323196433E+01+
*       7.6875000000E+00               0
GRID*               1877               0-2.309879021E+00-2.404378201E+01+
*       7.6874905948E+00               0
GRID*               1878               0-2.500000000E+00-2.500000007E+01+
*       7.6875000000E+00               0
GRID*               1879               0-2.309794211E+00-2.595643103E+01+
*       7.6874937628E+00               0
GRID*               1880               0-1.767498103E+00-2.676803576E+01+
*       7.6875000000E+00               0
GRID*               1881               0-9.567045550E-01-2.730969855E+01+
*       7.6874996584E+00               0
GRID*               1882               0-7.293425109E-04-2.749999989E+01+
*       7.6875000001E+00               0
GRID*               1883               09.5695192993E-01-2.730956453E+01+
*       7.6874864078E+00               0
GRID*               1884               01.7679591674E+00-2.676757472E+01+
*       7.6875000000E+00               0
GRID*               1885               02.3095051629E+00-2.595715443E+01+
*       7.6875022476E+00               0
GRID*               1886               02.3094917541E+00-2.404281610E+01+
*       8.7499959257E+00               0
GRID*               1887               01.7679591673E+00-2.323242528E+01+
*       8.7500000000E+00               0
GRID*               1888               09.5678633372E-01-2.269036719E+01+
*       8.7499999680E+00               0
GRID*               1889               0-7.294018755E-04-2.250000011E+01+
*       8.7500000000E+00               0
GRID*               1890               0-9.567008769E-01-2.269030016E+01+
*       8.7500005173E+00               0
GRID*               1891               0-1.767498196E+00-2.323196433E+01+
*       8.7500000000E+00               0
GRID*               1892               0-2.309860224E+00-2.404373479E+01+
*       8.7499940656E+00               0
GRID*               1893               0-2.500000000E+00-2.500000007E+01+
*       8.7500000000E+00               0
GRID*               1894               0-2.309860173E+00-2.595626533E+01+
*       8.7500059344E+00               0
GRID*               1895               0-1.767498103E+00-2.676803576E+01+
*       8.7500000000E+00               0
GRID*               1896               0-9.567008213E-01-2.730969986E+01+
*       8.7499994827E+00               0
GRID*               1897               0-7.293418086E-04-2.749999989E+01+
*       8.7500000000E+00               0
GRID*               1898               09.5678648809E-01-2.730963295E+01+
*       8.7500000319E+00               0
GRID*               1899               01.7679591673E+00-2.676757472E+01+
*       8.7500000000E+00               0
GRID*               1900               02.3094917541E+00-2.595718390E+01+
*       8.7500040743E+00               0
GRID*               1901               02.3095051629E+00-2.404284557E+01+
*       9.8124977524E+00               0
GRID*               1902               01.7679591673E+00-2.323242528E+01+
*       9.8125000000E+00               0
GRID*               1903               09.5695176505E-01-2.269043563E+01+
*       9.8125135922E+00               0
GRID*               1904               0-7.294025780E-04-2.250000011E+01+
*       9.8124999999E+00               0
GRID*               1905               0-9.567046106E-01-2.269030147E+01+
*       9.8125003416E+00               0
GRID*               1906               0-1.767498196E+00-2.323196433E+01+
*       9.8125000000E+00               0
GRID*               1907               0-2.309794261E+00-2.404356909E+01+
*       9.8125062372E+00               0
GRID*               1908               0-2.500000000E+00-2.500000007E+01+
*       9.8125000000E+00               0
GRID*               1909               0-2.309878970E+00-2.595621812E+01+
*       9.8125094052E+00               0
GRID*               1910               0-1.767498103E+00-2.676803576E+01+
*       9.8125000000E+00               0
GRID*               1911               0-9.566981643E-01-2.730970079E+01+
*       9.8124993578E+00               0
GRID*               1912               0-7.293411701E-04-2.749999989E+01+
*       9.8125000000E+00               0
GRID*               1913               09.5662167835E-01-2.730970111E+01+
*       9.8125136039E+00               0
GRID*               1914               01.7679591673E+00-2.676757472E+01+
*       9.8125000000E+00               0
GRID*               1915               02.3094963016E+00-2.595717390E+01+
*       9.8125034579E+00               0
GRID*               1916               02.3095388573E+00-2.404291962E+01+
*       1.0875002340E+01               0
GRID*               1917               01.7679591672E+00-2.323242528E+01+
*       1.0875000000E+01               0
GRID*               1918               09.5692264255E-01-2.269042358E+01+
*       1.0875011198E+01               0
GRID*               1919               0-7.294032864E-04-2.250000011E+01+
*       1.0875000000E+01               0
GRID*               1920               0-9.567082061E-01-2.269030274E+01+
*       1.0875000172E+01               0
GRID*               1921               0-1.767498196E+00-2.323196433E+01+
*       1.0875000000E+01               0
GRID*               1922               0-2.309787919E+00-2.404355316E+01+
*       1.0875007411E+01               0
GRID*               1923               0-2.500000000E+00-2.500000007E+01+
*       1.0875000000E+01               0
GRID*               1924               0-2.309863120E+00-2.595625793E+01+
*       1.0875006484E+01               0
GRID*               1925               0-1.767498103E+00-2.676803576E+01+
*       1.0875000000E+01               0
GRID*               1926               0-9.566991901E-01-2.730970043E+01+
*       1.0874999406E+01               0
GRID*               1927               0-7.293406491E-04-2.749999989E+01+
*       1.0875000000E+01               0
GRID*               1928               09.5665099313E-01-2.730968898E+01+
*       1.0875011194E+01               0
GRID*               1929               01.7679591672E+00-2.676757472E+01+
*       1.0875000000E+01               0
GRID*               1930               02.3095071220E+00-2.595715012E+01+
*       1.0875001987E+01               0
GRID*               1931               02.3095328885E+00-2.404290650E+01+
*       1.1937501530E+01               0
GRID*               1932               01.7679591671E+00-2.323242528E+01+
*       1.1937500000E+01               0
GRID*               1933               09.5683478952E-01-2.269038724E+01+
*       1.1937503965E+01               0
GRID*               1934               0-7.294039179E-04-2.250000011E+01+
*       1.1937500000E+01               0
GRID*               1935               0-9.567108461E-01-2.269030367E+01+
*       1.1937500048E+01               0
GRID*               1936               0-1.767498196E+00-2.323196433E+01+
*       1.1937500000E+01               0
GRID*               1937               0-2.309812365E+00-2.404361457E+01+
*       1.1937502902E+01               0
GRID*               1938               0-2.500000000E+00-2.500000007E+01+
*       1.1937500000E+01               0
GRID*               1939               0-2.309839597E+00-2.595631702E+01+
*       1.1937502144E+01               0
GRID*               1940               0-1.767498102E+00-2.676803576E+01+
*       1.1937500000E+01               0
GRID*               1941               0-9.567141152E-01-2.730969519E+01+
*       1.1937500109E+01               0
GRID*               1942               0-7.293402983E-04-2.749999989E+01+
*       1.1937500000E+01               0
GRID*               1943               09.5673884104E-01-2.730965265E+01+
*       1.1937503962E+01               0
GRID*               1944               01.7679591671E+00-2.676757472E+01+
*       1.1937500000E+01               0
GRID*               1945               02.3095172924E+00-2.595712777E+01+
*       1.1937500603E+01               0
GRID*               1946               02.3095181494E+002.4042874109E+01+
*       -3.500000460E+00               0
GRID*               1947               01.7679591676E+002.3232425284E+01+
*       -3.500000000E+00               0
GRID*               1948               09.5682588487E-012.2690383551E+01+
*       -3.500003057E+00               0
GRID*               1949               0-7.294039750E-042.2500000107E+01+
*       -3.500000000E+00               0
GRID*               1950               0-9.567110506E-012.2690303737E+01+
*       -3.500000036E+00               0
GRID*               1951               0-1.767498196E+002.3231964332E+01+
*       -3.500000000E+00               0
GRID*               1952               0-2.309837452E+002.4043677585E+01+
*       -3.500001645E+00               0
GRID*               1953               0-2.500000000E+002.5000000069E+01+
*       -3.500000000E+00               0
GRID*               1954               0-2.309815133E+002.5956378476E+01+
*       -3.500002253E+00               0
GRID*               1955               0-1.767498102E+002.6768035762E+01+
*       -3.500000000E+00               0
GRID*               1956               0-9.567158533E-012.7309694578E+01+
*       -3.500000180E+00               0
GRID*               1957               0-7.293402722E-042.7499999894E+01+
*       -3.500000000E+00               0
GRID*               1958               09.5674774061E-012.7309648973E+01+
*       -3.500003054E+00               0
GRID*               1959               01.7679591671E+002.6767574717E+01+
*       -3.500000000E+00               0
GRID*               1960               02.3095311188E+002.5957097389E+01+
*       -3.500001219E+00               0
GRID*               1961               02.3095096371E+002.4042855402E+01+
*       -2.500001556E+00               0
GRID*               1962               01.7679591676E+002.3232425284E+01+
*       -2.500000000E+00               0
GRID*               1963               09.5690435182E-012.2690416017E+01+
*       -2.500009167E+00               0
GRID*               1964               0-7.294034376E-042.2500000107E+01+
*       -2.500000000E+00               0
GRID*               1965               0-9.567089004E-012.2690302982E+01+
*       -2.500000132E+00               0
GRID*               1966               0-1.767498196E+002.3231964332E+01+
*       -2.500000000E+00               0
GRID*               1967               0-2.309857842E+002.4043728804E+01+
*       -2.500005202E+00               0
GRID*               1968               0-2.500000000E+002.5000000069E+01+
*       -2.500000000E+00               0
GRID*               1969               0-2.309792181E+002.5956436132E+01+
*       -2.500006255E+00               0
GRID*               1970               0-1.767498102E+002.6768035762E+01+
*       -2.500000000E+00               0
GRID*               1971               0-9.567005609E-012.7309699953E+01+
*       -2.499999500E+00               0
GRID*               1972               0-7.293405546E-042.7499999894E+01+
*       -2.500000000E+00               0
GRID*               1973               09.5666929320E-012.7309681414E+01+
*       -2.500009162E+00               0
GRID*               1974               01.7679591672E+002.6767574717E+01+
*       -2.500000000E+00               0
GRID*               1975               02.3095402614E+002.5957077297E+01+
*       -2.500002393E+00               0
GRID*               1976               02.3094996084E+002.4042833363E+01+
*       -1.500002844E+00               0
GRID*               1977               01.7679591675E+002.3232425283E+01+
*       -1.500000000E+00               0
GRID*               1978               09.5695581665E-012.2690437310E+01+
*       -1.500013171E+00               0
GRID*               1979               0-7.294028165E-042.2500000107E+01+
*       -1.500000000E+00               0
GRID*               1980               0-9.567058694E-012.2690301916E+01+
*       -1.500000267E+00               0
GRID*               1981               0-1.767498196E+002.3231964332E+01+
*       -1.500000000E+00               0
GRID*               1982               0-2.309876028E+002.4043774488E+01+
*       -1.500008371E+00               0
GRID*               1983               0-2.500000000E+002.5000000069E+01+
*       -1.500000000E+00               0
GRID*               1984               0-2.309785777E+002.5956452220E+01+
*       -1.500007369E+00               0
GRID*               1985               0-1.767498103E+002.6768035762E+01+
*       -1.500000000E+00               0
GRID*               1986               0-9.566978782E-012.7309700896E+01+
*       -1.499999380E+00               0
GRID*               1987               0-7.293409808E-042.7499999893E+01+
*       -1.500000000E+00               0
GRID*               1988               09.5661772515E-012.7309702740E+01+
*       -1.500013174E+00               0
GRID*               1989               01.7679591672E+002.6767574717E+01+
*       -1.500000000E+00               0
GRID*               1990               02.3095174422E+002.5957127445E+01+
*       -1.499999455E+00               0
GRID*               1991               02.3094924262E+002.4042817579E+01+
*       -5.000037656E-01               0
GRID*               1992               01.7679591674E+002.3232425283E+01+
*       -5.000000000E-01               0
GRID*               1993               09.5689531921E-012.2690412279E+01+
*       -5.000084567E-01               0
GRID*               1994               0-7.294021831E-042.2500000107E+01+
*       -5.000000000E-01               0
GRID*               1995               0-9.567024901E-012.2690300729E+01+
*       -5.000004171E-01               0
GRID*               1996               0-1.767498196E+002.3231964332E+01+
*       -5.000000000E-01               0
GRID*               1997               0-2.309875125E+002.4043772218E+01+
*       -5.000082107E-01               0
GRID*               1998               0-2.500000000E+002.5000000069E+01+
*       -5.000000000E-01               0
GRID*               1999               0-2.309829912E+002.5956341353E+01+
*       -4.999996686E-01               0
GRID*               2000               0-1.767498103E+002.6768035762E+01+
*       -5.000000000E-01               0
GRID*               2001               0-9.566994069E-012.7309700358E+01+
*       -4.999994484E-01               0
GRID*               2002               0-7.293415137E-042.7499999893E+01+
*       -5.000000000E-01               0
GRID*               2003               09.5667785119E-012.7309677875E+01+
*       -5.000084893E-01               0
GRID*               2004               01.7679591673E+002.6767574717E+01+
*       -5.000000000E-01               0
GRID*               2005               02.3094944617E+002.5957177947E+01+
*       -4.999964984E-01               0
GRID*               2006               02.3094944617E+002.4042822053E+01+
*       4.9999649842E-01               0
GRID*               2007               01.7679591673E+002.3232425283E+01+
*       5.0000000001E-01               0
GRID*               2008               09.5667770503E-012.2690322243E+01+
*       5.0000848937E-01               0
GRID*               2009               0-7.294015805E-042.2500000107E+01+
*       5.0000000003E-01               0
GRID*               2010               0-9.566994624E-012.2690299665E+01+
*       4.9999944838E-01               0
GRID*               2011               0-1.767498196E+002.3231964332E+01+
*       5.0000000000E-01               0
GRID*               2012               0-2.309829962E+002.4043658770E+01+
*       4.9999966863E-01               0
GRID*               2013               0-2.500000000E+002.5000000069E+01+
*       5.0000000000E-01               0
GRID*               2014               0-2.309875074E+002.5956227904E+01+
*       5.0000821066E-01               0
GRID*               2015               0-1.767498103E+002.6768035761E+01+
*       5.0000000000E-01               0
GRID*               2016               0-9.567024345E-012.7309699294E+01+
*       5.0000041707E-01               0
GRID*               2017               0-7.293421162E-042.7499999893E+01+
*       4.9999999995E-01               0
GRID*               2018               09.5689548059E-012.7309587875E+01+
*       5.0000845678E-01               0
GRID*               2019               01.7679591674E+002.6767574717E+01+
*       4.9999999999E-01               0
GRID*               2020               02.3094924262E+002.5957182421E+01+
*       5.0000376556E-01               0
GRID*               2021               02.3095174422E+002.4042872555E+01+
*       1.4999994555E+00               0
GRID*               2022               01.7679591672E+002.3232425283E+01+
*       1.5000000000E+00               0
GRID*               2023               09.5661758381E-012.2690297368E+01+
*       1.5000131739E+00               0
GRID*               2024               0-7.294010475E-042.2500000107E+01+
*       1.5000000000E+00               0
GRID*               2025               0-9.566979337E-012.2690299127E+01+
*       1.4999993805E+00               0
GRID*               2026               0-1.767498196E+002.3231964332E+01+
*       1.5000000000E+00               0
GRID*               2027               0-2.309785827E+002.4043547903E+01+
*       1.5000073690E+00               0
GRID*               2028               0-2.500000000E+002.5000000069E+01+
*       1.5000000000E+00               0
GRID*               2029               0-2.309875977E+002.5956225635E+01+
*       1.5000083713E+00               0
GRID*               2030               0-1.767498103E+002.6768035761E+01+
*       1.5000000000E+00               0
GRID*               2031               0-9.567058139E-012.7309698107E+01+
*       1.5000002668E+00               0
GRID*               2032               0-7.293427495E-042.7499999893E+01+
*       1.4999999999E+00               0
GRID*               2033               09.5695598164E-012.7309562855E+01+
*       1.5000131706E+00               0
GRID*               2034               01.7679591675E+002.6767574717E+01+
*       1.5000000000E+00               0
GRID*               2035               02.3094996084E+002.5957166637E+01+
*       1.5000028441E+00               0
GRID*               2036               02.3095402614E+002.4042922703E+01+
*       2.5000023927E+00               0
GRID*               2037               01.7679591672E+002.3232425283E+01+
*       2.5000000000E+00               0
GRID*               2038               09.5666914842E-012.2690318703E+01+
*       2.5000091622E+00               0
GRID*               2039               0-7.294006213E-042.2500000106E+01+
*       2.5000000000E+00               0
GRID*               2040               0-9.567006165E-012.2690300070E+01+
*       2.4999994999E+00               0
GRID*               2041               0-1.767498196E+002.3231964332E+01+
*       2.5000000000E+00               0
GRID*               2042               0-2.309792232E+002.4043563991E+01+
*       2.5000062552E+00               0
GRID*               2043               0-2.500000000E+002.5000000069E+01+
*       2.5000000000E+00               0
GRID*               2044               0-2.309857791E+002.5956271318E+01+
*       2.5000052017E+00               0
GRID*               2045               0-1.767498103E+002.6768035761E+01+
*       2.5000000000E+00               0
GRID*               2046               0-9.567088448E-012.7309697041E+01+
*       2.5000001319E+00               0
GRID*               2047               0-7.293433705E-042.7499999893E+01+
*       2.4999999999E+00               0
GRID*               2048               09.5690451305E-012.7309584140E+01+
*       2.5000091666E+00               0
GRID*               2049               01.7679591676E+002.6767574716E+01+
*       2.5000000000E+00               0
GRID*               2050               02.3095096371E+002.5957144598E+01+
*       2.5000015556E+00               0
GRID*               2051               02.3095311188E+002.4042902611E+01+
*       3.5000012191E+00               0
GRID*               2052               01.7679591671E+002.3232425283E+01+
*       3.5000000000E+00               0
GRID*               2053               09.5674759030E-012.2690351158E+01+
*       3.5000030545E+00               0
GRID*               2054               0-7.294003388E-042.2500000106E+01+
*       3.5000000000E+00               0
GRID*               2055               0-9.567159088E-012.2690305445E+01+
*       3.5000001799E+00               0
GRID*               2056               0-1.767498196E+002.3231964332E+01+
*       3.5000000000E+00               0
GRID*               2057               0-2.309815184E+002.4043621646E+01+
*       3.5000022527E+00               0
GRID*               2058               0-2.500000000E+002.5000000069E+01+
*       3.5000000000E+00               0
GRID*               2059               0-2.309837402E+002.5956322537E+01+
*       3.5000016447E+00               0
GRID*               2060               0-1.767498103E+002.6768035761E+01+
*       3.5000000000E+00               0
GRID*               2061               0-9.567109950E-012.7309696286E+01+
*       3.5000000361E+00               0
GRID*               2062               0-7.293439078E-042.7499999893E+01+
*       3.4999999999E+00               0
GRID*               2063               09.5682604065E-012.7309616592E+01+
*       3.5000030569E+00               0
GRID*               2064               01.7679591676E+002.6767574716E+01+
*       3.5000000000E+00               0
GRID*               2065               02.3095181494E+002.5957125891E+01+
*       3.5000004598E+00               0
GRID*               2066               05.0000000000E+00-1.031231262E+01+
*       -9.901598694E+00               0
GRID*               2067               05.0000000000E+00-9.648580832E+00+
*       -8.787093201E+00               0
GRID*               2068               05.0000000000E+00-9.003606664E+00+
*       -7.648967121E+00               0
GRID*               2069               05.0000000000E+00-1.020432469E+01+
*       -7.640158227E+00               0
GRID*               2070               05.0000000000E+00-1.083154956E+01+
*       -8.770592620E+00               0
GRID*               2071               05.0000000000E+00-1.144532644E+01+
*       -9.894211336E+00               0
GRID*               2072               05.0000000000E+00-1.138795026E+01+
*       -7.630607074E+00               0
GRID*               2073               05.0000000000E+00-1.201823656E+01+
*       -8.773950695E+00               0
GRID*               2074               05.0000000000E+00-1.258542080E+01+
*       -9.918983742E+00               0
GRID*               2075               05.0000000000E+00-1.260470726E+01+
*       -7.624194847E+00               0
GRID*               2076               05.0000000000E+00-1.327936481E+01+
*       -8.820223043E+00               0
GRID*               2077               05.0000000000E+00-1.372965296E+01+
*       -1.001165646E+01               0
GRID*               2078               05.0000000000E+00-1.562613417E+01+
*       -1.003304037E+01               0
GRID*               2079               05.0000000000E+00-1.614613084E+01+
*       -8.893638891E+00               0
GRID*               2080               05.0000000000E+00-1.680178224E+01+
*       -7.722161797E+00               0
GRID*               2081               05.0000000000E+00-1.816579353E+01+
*       -7.859733544E+00               0
GRID*               2082               05.0000000000E+00-1.737719213E+01+
*       -8.925355777E+00               0
GRID*               2083               05.0000000000E+00-1.676630535E+01+
*       -9.976093335E+00               0
GRID*               2084               05.0000000000E+00-1.792229389E+01+
*       -9.980010541E+00               0
GRID*               2085               05.0000000000E+00-1.845634080E+01+
*       -9.080846517E+00               0
GRID*               2086               05.0000000000E+00-1.554349346E+01+
*       -7.688660194E+00               0
GRID*               2087               05.0000000000E+00-1.406934730E+01+
*       -7.538834655E+00               0
GRID*               2088               05.0000000000E+00-1.472480771E+01+
*       -9.032283028E+00               0
GRID*               2089               05.0000000000E+00-1.467290661E+01+
*       -1.023881771E+01               0
GRID*               2090               05.0000000000E+001.2624726464E+01+
*       -8.517704255E+00               0
GRID*               2091               05.0000000000E+001.3663870431E+01+
*       -9.910851007E+00               0
GRID*               2092               05.0000000000E+001.4614291363E+01+
*       -8.511546587E+00               0
GRID*               2093               05.0000000000E+001.6491244141E+01+
*       -8.240591485E+00               0
GRID*               2094               05.0000000000E+001.7405455924E+01+
*       -9.856682583E+00               0
GRID*               2095               05.0000000000E+001.8214847186E+01+
*       -8.223077604E+00               0
GRID*               2096               05.0000000000E+001.5798148691E+01+
*       -9.807589738E+00               0
GRID*               2097               05.0000000000E+001.4708791680E+01+
*       -1.009999656E+01               0
GRID*               2098               05.0000000000E+001.0790565663E+01+
*       -8.277509441E+00               0
GRID*               2099               05.0000000000E+001.1579981856E+01+
*       -9.813609137E+00               0
GRID*               2100               05.0000000000E+001.2635413805E+01+
*       -1.010293417E+01               0
GRID*               2101               05.0000000000E+00-5.065836592E+00+
*       -9.870146623E+00               0
GRID*               2102               05.0000000000E+00-5.763124351E+00+
*       -8.735865015E+00               0
GRID*               2103               05.0000000000E+00-6.475369553E+00+
*       -7.626506591E+00               0
GRID*               2104               05.0000000000E+00-7.755422012E+00+
*       -7.646762319E+00               0
GRID*               2105               05.0000000000E+00-8.399915161E+00+
*       -8.806879871E+00               0
GRID*               2106               05.0000000000E+00-7.078317219E+00+
*       -8.792782108E+00               0
GRID*               2107               05.0000000000E+00-9.145641595E+00+
*       -9.924864680E+00               0
GRID*               2108               05.0000000000E+00-7.753388526E+00+
*       -1.004535561E+01               0
GRID*               2109               05.0000000000E+00-6.333216039E+00+
*       -9.908962827E+00               0
GRID*               2110               05.0000000000E+00-4.423557845E+00+
*       -8.613522818E+00               0
GRID*               2111               05.0000000000E+00-4.064127769E+00+
*       -7.455674751E+00               0
GRID*               2112               05.0000000000E+00-5.196595973E+00+
*       -7.568860083E+00               0
GRID*               2113               05.0000000000E+00-3.815435292E-02+
*       -9.643539546E+00               0
GRID*               2114               05.0000000000E+00-9.961611472E-01+
*       -8.109910592E+00               0
GRID*               2115               05.0000000000E+00-1.671243715E+00+
*       -9.813032641E+00               0
GRID*               2116               05.0000000000E+00-3.528986675E+00+
*       -9.907460260E+00               0
GRID*               2117               05.0000000000E+00-2.808116968E+00+
*       -8.127133059E+00               0
GRID*               2118               05.0000000000E+005.4120586663E+00+
*       -8.123396230E+00               0
GRID*               2119               05.0000000000E+006.2843309783E+00+
*       -9.656869306E+00               0
GRID*               2120               05.0000000000E+001.0250508556E+01+
*       -9.812628134E+00               0
GRID*               2121               05.0000000000E+008.9187539360E+00+
*       -8.460685620E+00               0
GRID*               2122               05.0000000000E+008.9800564096E+00+
*       -1.018039906E+01               0
GRID*               2123               05.0000000000E+007.6793235637E+00+
*       -9.766765932E+00               0
GRID*               2124               05.0000000000E+007.0561010021E+00+
*       -8.175394149E+00               0
GRID*               2125               05.0000000000E+003.1347689611E+00+
*       -9.639385819E+00               0
GRID*               2126               05.0000000000E+002.1870465269E+00+
*       -8.103389171E+00               0
GRID*               2127               05.0000000000E+006.0189129188E-01+
*       -8.099842758E+00               0
GRID*               2128               05.0000000000E+001.5672411900E+00+
*       -9.769044368E+00               0
GRID*               2129               05.0000000000E+004.7312881097E+00+
*       -9.776041500E+00               0
GRID*               2130               05.0000000000E+003.7852664953E+00+
*       -8.106802603E+00               0
GRID*               2131               05.0000000000E+002.0589712746E+00+
*       9.8734052798E+00               0
GRID*               2132               05.0000000000E+002.6340975361E+00+
*       8.7501126255E+00               0
GRID*               2133               05.0000000000E+003.2094874662E+00+
*       7.6265648590E+00               0
GRID*               2134               05.0000000000E+004.2544351969E+00+
*       7.6282130954E+00               0
GRID*               2135               05.0000000000E+003.6785635881E+00+
*       8.7523455787E+00               0
GRID*               2136               05.0000000000E+003.1037551886E+00+
*       9.8755015239E+00               0
GRID*               2137               05.0000000000E+005.2993552448E+00+
*       7.6291156633E+00               0
GRID*               2138               05.0000000000E+004.7234407067E+00+
*       8.7536836651E+00               0
GRID*               2139               05.0000000000E+004.1490127156E+00+
*       9.8764989780E+00               0
GRID*               2140               05.0000000000E+006.3440264156E+00+
*       7.6296140026E+00               0
GRID*               2141               05.0000000000E+005.7684774177E+00+
*       8.7543873894E+00               0
GRID*               2142               05.0000000000E+005.1945321945E+00+
*       9.8770083936E+00               0
GRID*               2143               05.0000000000E+007.3881618885E+00+
*       7.6302330233E+00               0
GRID*               2144               05.0000000000E+006.8133569314E+00+
*       8.7550418600E+00               0
GRID*               2145               05.0000000000E+006.2401408762E+00+
*       9.8773722578E+00               0
GRID*               2146               05.0000000000E+008.4320650686E+00+
*       7.6299666283E+00               0
GRID*               2147               05.0000000000E+007.8581405260E+00+
*       8.7549994950E+00               0
GRID*               2148               05.0000000000E+007.2857652750E+00+
*       9.8774483189E+00               0
GRID*               2149               05.0000000000E+009.4755232673E+00+
*       7.6298714035E+00               0
GRID*               2150               05.0000000000E+008.9027408082E+00+
*       8.7549758202E+00               0
GRID*               2151               05.0000000000E+008.3313944195E+00+
*       9.8774466367E+00               0
GRID*               2152               05.0000000000E+001.0518611886E+01+
*       7.6298618631E+00               0
GRID*               2153               05.0000000000E+009.9471907018E+00+
*       8.7548319075E+00               0
GRID*               2154               05.0000000000E+009.3770079635E+00+
*       9.8773679236E+00               0
GRID*               2155               05.0000000000E+001.1561346005E+01+
*       7.6296892164E+00               0
GRID*               2156               05.0000000000E+001.0991424303E+01+
*       8.7547373226E+00               0
GRID*               2157               05.0000000000E+001.0422583196E+01+
*       9.8773128879E+00               0
GRID*               2158               05.0000000000E+001.2603642476E+01+
*       7.6297803228E+00               0
GRID*               2159               05.0000000000E+001.2035414586E+01+
*       8.7547537647E+00               0
GRID*               2160               05.0000000000E+001.1468089112E+01+
*       9.8772977442E+00               0
GRID*               2161               05.0000000000E+001.3645553009E+01+
*       7.6299258989E+00               0
GRID*               2162               05.0000000000E+001.3079132274E+01+
*       8.7548558522E+00               0
GRID*               2163               05.0000000000E+001.2513504271E+01+
*       9.8773163914E+00               0
GRID*               2164               05.0000000000E+001.4694458110E+01+
*       7.6237864147E+00               0
GRID*               2165               05.0000000000E+001.4128003398E+01+
*       8.7513824299E+00               0
GRID*               2166               05.0000000000E+001.3560764638E+01+
*       9.8764511703E+00               0
GRID*               2167               05.0000000000E+001.5760007235E+01+
*       7.6173746012E+00               0
GRID*               2168               05.0000000000E+001.5192764145E+01+
*       8.7482889017E+00               0
GRID*               2169               05.0000000000E+001.4614856797E+01+
*       9.8758761143E+00               0
GRID*               2170               05.0000000000E+001.6869026188E+01+
*       7.6015147125E+00               0
GRID*               2171               05.0000000000E+001.6306442390E+01+
*       8.7456050848E+00               0
GRID*               2172               05.0000000000E+001.5688191544E+01+
*       9.8787350098E+00               0
GRID*               2173               05.0000000000E+001.8000771266E+01+
*       7.5451610580E+00               0
GRID*               2174               05.0000000000E+001.7572474437E+01+
*       8.7456295278E+00               0
GRID*               2175               05.0000000000E+001.6800396784E+01+
*       9.8923266316E+00               0
GRID*               2176               05.0000000000E+001.7930474111E+01+
*       9.9468973715E+00               0
GRID*               2177               05.0000000000E+001.8573758223E+01+
*       8.3695237890E+00               0
GRID*               2178               05.0000000000E+001.8553248273E+01+
*       9.1237936676E+00               0
GRID*               2179               05.0000000000E+001.0137033830E+00+
*       9.8718690491E+00               0
GRID*               2180               05.0000000000E+001.5890934085E+00+
*       8.7477642736E+00               0
GRID*               2181               05.0000000000E+002.1640517800E+00+
*       7.6246365003E+00               0
GRID*               2182               05.0000000000E+00-3.216620619E-02+
*       9.8710914087E+00               0
GRID*               2183               05.0000000000E+005.4301937003E-01+
*       8.7465586929E+00               0
GRID*               2184               05.0000000000E+001.1174760133E+00+
*       7.6236883677E+00               0
GRID*               2185               05.0000000000E+00-1.078422156E+00+
*       9.8707727484E+00               0
GRID*               2186               05.0000000000E+00-5.038465527E-01+
*       8.7459980167E+00               0
GRID*               2187               05.0000000000E+006.9956580985E-02+
*       7.6232341704E+00               0
GRID*               2188               05.0000000000E+00-2.124929404E+00+
*       9.8706966431E+00               0
GRID*               2189               05.0000000000E+00-1.551315623E+00+
*       8.7457960556E+00               0
GRID*               2190               05.0000000000E+00-9.783714842E-01+
*       7.6230473476E+00               0
GRID*               2191               05.0000000000E+00-3.171611741E+00+
*       9.8707374212E+00               0
GRID*               2192               05.0000000000E+00-2.599268542E+00+
*       8.7457836505E+00               0
GRID*               2193               05.0000000000E+00-2.027418563E+00+
*       7.6230054710E+00               0
GRID*               2194               05.0000000000E+00-4.218430015E+00+
*       9.8708310356E+00               0
GRID*               2195               05.0000000000E+00-3.647635201E+00+
*       8.7458635624E+00               0
GRID*               2196               05.0000000000E+00-3.077126583E+00+
*       7.6230392944E+00               0
GRID*               2197               05.0000000000E+00-5.265364744E+00+
*       9.8709453139E+00               0
GRID*               2198               05.0000000000E+00-4.696375446E+00+
*       8.7459843810E+00               0
GRID*               2199               05.0000000000E+00-4.127456721E+00+
*       7.6231095061E+00               0
GRID*               2200               05.0000000000E+00-6.312405568E+00+
*       9.8710645914E+00               0
GRID*               2201               05.0000000000E+00-5.745464308E+00+
*       8.7461198614E+00               0
GRID*               2202               05.0000000000E+00-5.178380064E+00+
*       7.6231949015E+00               0
GRID*               2203               05.0000000000E+00-7.359545772E+00+
*       9.8711814664E+00               0
GRID*               2204               05.0000000000E+00-6.794883070E+00+
*       8.7462569030E+00               0
GRID*               2205               05.0000000000E+00-6.229871171E+00+
*       7.6232844397E+00               0
GRID*               2206               05.0000000000E+00-8.406777942E+00+
*       9.8712878201E+00               0
GRID*               2207               05.0000000000E+00-7.844613446E+00+
*       8.7463855889E+00               0
GRID*               2208               05.0000000000E+00-7.281903962E+00+
*       7.6233711476E+00               0
GRID*               2209               05.0000000000E+00-9.454095619E+00+
*       9.8713830685E+00               0
GRID*               2210               05.0000000000E+00-8.894636345E+00+
*       8.7465025307E+00               0
GRID*               2211               05.0000000000E+00-8.334449716E+00+
*       7.6234516513E+00               0
GRID*               2212               05.0000000000E+00-1.050149217E+01+
*       9.8714666223E+00               0
GRID*               2213               05.0000000000E+00-9.944931628E+00+
*       8.7466062068E+00               0
GRID*               2214               05.0000000000E+00-9.387476880E+00+
*       7.6235245440E+00               0
GRID*               2215               05.0000000000E+00-1.154896132E+01+
*       9.8715380329E+00               0
GRID*               2216               05.0000000000E+00-1.099547821E+01+
*       8.7466962599E+00               0
GRID*               2217               05.0000000000E+00-1.044095096E+01+
*       7.6235889969E+00               0
GRID*               2218               05.0000000000E+00-1.259644877E+01+
*       9.8714673757E+00               0
GRID*               2219               05.0000000000E+00-1.204622140E+01+
*       8.7466678767E+00               0
GRID*               2220               05.0000000000E+00-1.149482478E+01+
*       7.6236031431E+00               0
GRID*               2221               05.0000000000E+00-1.364394637E+01+
*       9.8713428146E+00               0
GRID*               2222               05.0000000000E+00-1.309711816E+01+
*       8.7465802936E+00               0
GRID*               2223               05.0000000000E+00-1.254904234E+01+
*       7.6235847375E+00               0
GRID*               2224               05.0000000000E+00-1.469873147E+01+
*       9.8622503270E+00               0
GRID*               2225               05.0000000000E+00-1.415354418E+01+
*       8.7387156087E+00               0
GRID*               2226               05.0000000000E+00-1.360573762E+01+
*       7.6201030518E+00               0
GRID*               2227               05.0000000000E+00-1.576897473E+01+
*       9.8471775962E+00               0
GRID*               2228               05.0000000000E+00-1.522271083E+01+
*       8.7232961569E+00               0
GRID*               2229               05.0000000000E+00-1.466835880E+01+
*       7.6122517658E+00               0
GRID*               2230               05.0000000000E+00-1.688340469E+01+
*       9.7981564973E+00               0
GRID*               2231               05.0000000000E+00-1.631429092E+01+
*       8.6870017490E+00               0
GRID*               2232               05.0000000000E+00-1.574031024E+01+
*       7.5975364436E+00               0
GRID*               2233               05.0000000000E+00-1.818908706E+01+
*       9.6469484430E+00               0
GRID*               2234               05.0000000000E+00-1.743998790E+01+
*       8.6033198484E+00               0
GRID*               2235               05.0000000000E+00-1.682846765E+01+
*       7.5686336891E+00               0
GRID*               2236               05.0000000000E+00-1.794776999E+01+
*       7.5342063737E+00               0
GRID*               2237               05.0000000000E+00-1.847757585E+01+
*       8.4292901600E+00               0
GRID*               2238               0-3.315569032E+00-2.986168973E+01+
*       5.3844829249E+00               0
GRID*               2239               03.5649730570E+00-2.026995973E+01+
*       5.4230786070E+00               0
GRID*               2240               03.3045636959E+00-2.986750371E+01+
*       5.3833055416E+00               0
GRID*               2241               0-9.187571976E-01-3.077518799E+01+
*       5.3468618007E+00               0
GRID*               2242               0-2.256885318E+00-3.065545236E+01+
*       5.5888614584E+00               0
GRID*               2243               06.7112751438E-01-3.088960962E+01+
*       5.4279810676E+00               0
GRID*               2244               02.2138047660E+00-3.067875773E+01+
*       5.5950124314E+00               0
GRID*               2245               05.7472476149E+00-2.374285551E+01+
*       5.3831246616E+00               0
GRID*               2246               04.6371221138E+00-2.143708458E+01+
*       5.3479506356E+00               0
GRID*               2247               05.5135413612E+00-2.241877920E+01+
*       5.5880497581E+00               0
GRID*               2248               05.7180908616E+00-2.655963136E+01+
*       5.4271263198E+00               0
GRID*               2249               06.0941234087E+00-2.504429270E+01+
*       5.5943115760E+00               0
GRID*               2250               05.0155290641E+00-2.800662615E+01+
*       5.3472291731E+00               0
GRID*               2251               04.4229915251E+00-2.918428940E+01+
*       5.5888617096E+00               0
GRID*               2252               0-3.574634307E+00-2.027553656E+01+
*       5.4244615830E+00               0
GRID*               2253               0-5.747953376E+00-2.374198541E+01+
*       5.3831897075E+00               0
GRID*               2254               0-5.712931288E+00-2.657774609E+01+
*       5.4270429445E+00               0
GRID*               2255               0-6.096065724E+00-2.505014859E+01+
*       5.5956493923E+00               0
GRID*               2256               0-5.015218431E+00-2.800529100E+01+
*       5.3466640366E+00               0
GRID*               2257               0-4.438050252E+00-2.916893482E+01+
*       5.5893246673E+00               0
GRID*               2258               0-4.635462991E+00-2.143542677E+01+
*       5.3475217836E+00               0
GRID*               2259               0-5.509801788E+00-2.241159663E+01+
*       5.5875028342E+00               0
GRID*               2260               0-9.245595337E-01-1.922978088E+01+
*       5.3428691706E+00               0
GRID*               2261               06.7574738645E-01-1.911379700E+01+
*       5.4251207092E+00               0
GRID*               2262               02.2531776407E+00-1.933911515E+01+
*       5.5929340046E+00               0
GRID*               2263               0-2.298931468E+00-1.936464315E+01+
*       5.5861984928E+00               0
GRID*               2264               0-3.315569030E+00-2.986168973E+01+
*       1.2115517079E+01               0
GRID*               2265               03.5649730551E+00-2.026995973E+01+
*       1.2076921396E+01               0
GRID*               2266               03.3045636914E+00-2.986750370E+01+
*       1.2116694463E+01               0
GRID*               2267               0-9.187571844E-01-3.077518799E+01+
*       1.2153138196E+01               0
GRID*               2268               0-2.256885312E+00-3.065545236E+01+
*       1.1911138545E+01               0
GRID*               2269               06.7112751718E-01-3.088960962E+01+
*       1.2072018931E+01               0
GRID*               2270               02.2138047654E+00-3.067875773E+01+
*       1.1904987570E+01               0
GRID*               2271               05.7472476130E+00-2.374285552E+01+
*       1.2116875343E+01               0
GRID*               2272               04.6371221051E+00-2.143708458E+01+
*       1.2152049373E+01               0
GRID*               2273               05.5135413537E+00-2.241877920E+01+
*       1.1911950251E+01               0
GRID*               2274               05.7180908604E+00-2.655963136E+01+
*       1.2072873682E+01               0
GRID*               2275               06.0941234092E+00-2.504429271E+01+
*       1.1905688423E+01               0
GRID*               2276               05.0155290642E+00-2.800662615E+01+
*       1.2152770827E+01               0
GRID*               2277               04.4229915232E+00-2.918428940E+01+
*       1.1911138292E+01               0
GRID*               2278               0-3.574634304E+00-2.027553656E+01+
*       1.2075538419E+01               0
GRID*               2279               0-5.747953381E+00-2.374198541E+01+
*       1.2116810287E+01               0
GRID*               2280               0-5.712931281E+00-2.657774609E+01+
*       1.2072957063E+01               0
GRID*               2281               0-6.096065721E+00-2.505014859E+01+
*       1.1904350611E+01               0
GRID*               2282               0-5.015218432E+00-2.800529100E+01+
*       1.2153335963E+01               0
GRID*               2283               0-4.438050253E+00-2.916893482E+01+
*       1.1910675333E+01               0
GRID*               2284               0-4.635462990E+00-2.143542677E+01+
*       1.2152478217E+01               0
GRID*               2285               0-5.509801794E+00-2.241159663E+01+
*       1.1912497160E+01               0
GRID*               2286               0-9.245595236E-01-1.922978086E+01+
*       1.2157130809E+01               0
GRID*               2287               06.7574738409E-01-1.911379700E+01+
*       1.2074879288E+01               0
GRID*               2288               02.2531776367E+00-1.933911515E+01+
*       1.1907065998E+01               0
GRID*               2289               0-2.298931465E+00-1.936464315E+01+
*       1.1913801505E+01               0
GRID*               2290               0-3.315569031E+002.9861689729E+01+
*       5.3844829216E+00               0
GRID*               2291               03.5649730549E+002.0269959729E+01+
*       5.4230786040E+00               0
GRID*               2292               03.3045636914E+002.9867503704E+01+
*       5.3833055370E+00               0
GRID*               2293               0-9.187571845E-013.0775187994E+01+
*       5.3468618057E+00               0
GRID*               2294               0-2.256885313E+003.0655452362E+01+
*       5.5888614557E+00               0
GRID*               2295               06.7112751830E-013.0889609621E+01+
*       5.4279810684E+00               0
GRID*               2296               02.2138047652E+003.0678757731E+01+
*       5.5950124295E+00               0
GRID*               2297               05.7472476137E+002.3742855519E+01+
*       5.3831246578E+00               0
GRID*               2298               04.6371221052E+002.1437084579E+01+
*       5.3479506275E+00               0
GRID*               2299               05.5135413540E+002.2418779203E+01+
*       5.5880497491E+00               0
GRID*               2300               05.7180908595E+002.6559631355E+01+
*       5.4271263176E+00               0
GRID*               2301               06.0941234092E+002.5044292706E+01+
*       5.5943115766E+00               0
GRID*               2302               05.0155290641E+002.8006626150E+01+
*       5.3472291723E+00               0
GRID*               2303               04.4229915231E+002.9184289400E+01+
*       5.5888617076E+00               0
GRID*               2304               0-3.574634303E+002.0275536565E+01+
*       5.4244615800E+00               0
GRID*               2305               0-5.747953381E+002.3741985408E+01+
*       5.3831897128E+00               0
GRID*               2306               0-5.712931282E+002.6577746093E+01+
*       5.4270429389E+00               0
GRID*               2307               0-6.096065720E+002.5050148589E+01+
*       5.5956493883E+00               0
GRID*               2308               0-5.015218432E+002.8005290996E+01+
*       5.3466640381E+00               0
GRID*               2309               0-4.438050253E+002.9168934817E+01+
*       5.5893246682E+00               0
GRID*               2310               0-4.635462990E+002.1435426775E+01+
*       5.3475217823E+00               0
GRID*               2311               0-5.509801794E+002.2411596633E+01+
*       5.5875028389E+00               0
GRID*               2312               0-9.245595209E-011.9229780859E+01+
*       5.3428691898E+00               0
GRID*               2313               06.7574738431E-011.9113796998E+01+
*       5.4251207117E+00               0
GRID*               2314               02.2531776364E+001.9339115148E+01+
*       5.5929340022E+00               0
GRID*               2315               0-2.298931464E+001.9364643146E+01+
*       5.5861984943E+00               0
GRID*               2316               0-3.315569031E+002.9861689729E+01+
*       1.2115517078E+01               0
GRID*               2317               03.5649730549E+002.0269959729E+01+
*       1.2076921396E+01               0
GRID*               2318               03.3045636915E+002.9867503704E+01+
*       1.2116694463E+01               0
GRID*               2319               0-9.187571846E-013.0775187994E+01+
*       1.2153138195E+01               0
GRID*               2320               0-2.256885313E+003.0655452362E+01+
*       1.1911138544E+01               0
GRID*               2321               06.7112751799E-013.0889609621E+01+
*       1.2072018932E+01               0
GRID*               2322               02.2138047654E+003.0678757731E+01+
*       1.1904987570E+01               0
GRID*               2323               05.7472476140E+002.3742855519E+01+
*       1.2116875342E+01               0
GRID*               2324               04.6371221051E+002.1437084579E+01+
*       1.2152049373E+01               0
GRID*               2325               05.5135413540E+002.2418779203E+01+
*       1.1911950251E+01               0
GRID*               2326               05.7180908595E+002.6559631355E+01+
*       1.2072873682E+01               0
GRID*               2327               06.0941234092E+002.5044292706E+01+
*       1.1905688423E+01               0
GRID*               2328               05.0155290641E+002.8006626150E+01+
*       1.2152770828E+01               0
GRID*               2329               04.4229915231E+002.9184289400E+01+
*       1.1911138292E+01               0
GRID*               2330               0-3.574634303E+002.0275536565E+01+
*       1.2075538420E+01               0
GRID*               2331               0-5.747953381E+002.3741985409E+01+
*       1.2116810287E+01               0
GRID*               2332               0-5.712931282E+002.6577746093E+01+
*       1.2072957061E+01               0
GRID*               2333               0-6.096065720E+002.5050148590E+01+
*       1.1904350612E+01               0
GRID*               2334               0-5.015218433E+002.8005290996E+01+
*       1.2153335962E+01               0
GRID*               2335               0-4.438050253E+002.9168934817E+01+
*       1.1910675331E+01               0
GRID*               2336               0-4.635462989E+002.1435426775E+01+
*       1.2152478218E+01               0
GRID*               2337               0-5.509801794E+002.2411596633E+01+
*       1.1912497161E+01               0
GRID*               2338               0-9.245595205E-011.9229780859E+01+
*       1.2157130810E+01               0
GRID*               2339               06.7574738443E-011.9113796999E+01+
*       1.2074879289E+01               0
GRID*               2340               02.2531776363E+001.9339115148E+01+
*       1.1907065998E+01               0
GRID*               2341               0-2.298931463E+001.9364643146E+01+
*       1.1913801506E+01               0
GRID*               2342               01.2884172203E+00-1.653807670E+01+
*       -1.100000000E+01               0
GRID*               2343               02.6302638312E+00-1.563957279E+01+
*       -1.100000000E+01               0
GRID*               2344               03.8670708815E+00-1.478930321E+01+
*       -1.100000000E+01               0
GRID*               2345               04.1006600408E+00-1.776571453E+01+
*       -1.100000000E+01               0
GRID*               2346               04.0439583728E+00-1.630059622E+01+
*       -1.100000000E+01               0
GRID*               2347               02.7978424055E+00-1.719113400E+01+
*       -1.100000000E+01               0
GRID*               2348               0-1.523455739E+001.6763799114E+01+
*       -1.100000000E+01               0
GRID*               2349               0-2.657692777E+001.5892171305E+01+
*       -1.100000000E+01               0
GRID*               2350               0-3.823305735E+001.4932618317E+01+
*       -1.100000000E+01               0
GRID*               2351               0-4.107187876E+001.7788151086E+01+
*       -1.100000000E+01               0
GRID*               2352               0-2.829169244E+001.7272999193E+01+
*       -1.100000000E+01               0
GRID*               2353               0-4.044071799E+001.6372958181E+01+
*       -1.100000000E+01               0
GRID*               2354               0-4.228967263E+00-1.681621799E+01+
*       -1.100000000E+01               0
GRID*               2355               0-3.333962030E+00-1.733949429E+01+
*       -1.100000000E+01               0
GRID*               2356               0-4.179458230E+00-1.785170921E+01+
*       -1.100000000E+01               0
GRID*               2357               04.1152587993E+001.6878468594E+01+
*       -1.100000000E+01               0
GRID*               2358               03.2712404294E+001.7426160142E+01+
*       -1.100000000E+01               0
GRID*               2359               04.1477151196E+001.7876890533E+01+
*       -1.100000000E+01               0
GRID*               2360               0-3.885258353E+00-4.292376183E+00+
*       -1.100000000E+01               0
GRID*               2361               0-2.496265341E+00-3.522401883E+00+
*       -1.100000000E+01               0
GRID*               2362               0-8.984691836E-01-2.503374333E+00+
*       -1.100000000E+01               0
GRID*               2363               08.1830072616E-01-1.492689647E+00+
*       -1.100000000E+01               0
GRID*               2364               02.4566109818E+00-4.675058282E-01+
*       -1.100000000E+01               0
GRID*               2365               03.8918379479E+002.9382538612E-01+
*       -1.100000000E+01               0
GRID*               2366               04.0152733470E+00-9.330527401E+00+
*       -1.100000000E+01               0
GRID*               2367               02.7334916733E+00-8.282099122E+00+
*       -1.100000000E+01               0
GRID*               2368               08.8988276811E-01-7.303264805E+00+
*       -1.100000000E+01               0
GRID*               2369               0-8.307378245E-01-6.332249429E+00+
*       -1.100000000E+01               0
GRID*               2370               0-2.640669528E+00-5.382057815E+00+
*       -1.100000000E+01               0
GRID*               2371               08.1780561982E-01-3.492565876E+00+
*       -1.100000000E+01               0
GRID*               2372               08.1465861933E-01-5.419171518E+00+
*       -1.100000000E+01               0
GRID*               2373               0-8.717644091E-01-4.441791495E+00+
*       -1.100000000E+01               0
GRID*               2374               02.6455916149E+00-2.512229558E+00+
*       -1.100000000E+01               0
GRID*               2375               02.4262807701E+00-4.555427539E+00+
*       -1.100000000E+01               0
GRID*               2376               02.4548149238E+00-6.381178875E+00+
*       -1.100000000E+01               0
GRID*               2377               03.9003376539E+00-7.168939412E+00+
*       -1.100000000E+01               0
GRID*               2378               04.1693042829E+00-8.280090925E+00+
*       -1.100000000E+01               0
GRID*               2379               03.8913944229E+00-1.164583903E+00+
*       -1.100000000E+01               0
GRID*               2380               04.2390445715E+00-2.513305875E+00+
*       -1.100000000E+01               0
GRID*               2381               03.8903515239E+00-3.889625254E+00+
*       -1.100000000E+01               0
GRID*               2382               03.9416352980E+00-5.571969997E+00+
*       -1.100000000E+01               0
GRID*               2383               02.8137797123E+00-1.031165756E+01+
*       -1.100000000E+01               0
GRID*               2384               01.0192016466E+00-1.122883702E+01+
*       -1.100000000E+01               0
GRID*               2385               0-7.089912532E-01-1.220281873E+01+
*       -1.100000000E+01               0
GRID*               2386               0-2.364577730E+00-1.318751654E+01+
*       -1.100000000E+01               0
GRID*               2387               0-3.824087110E+00-1.386001717E+01+
*       -1.100000000E+01               0
GRID*               2388               0-7.450714942E-01-1.017252290E+01+
*       -1.100000000E+01               0
GRID*               2389               0-7.554214271E-01-8.225394274E+00+
*       -1.100000000E+01               0
GRID*               2390               09.9201726980E-01-9.253721150E+00+
*       -1.100000000E+01               0
GRID*               2391               0-2.407223713E+00-7.258514206E+00+
*       -1.100000000E+01               0
GRID*               2392               0-3.867937086E+00-6.478625618E+00+
*       -1.100000000E+01               0
GRID*               2393               0-4.119230045E+00-5.372139495E+00+
*       -1.100000000E+01               0
GRID*               2394               0-2.594139969E+00-1.112568470E+01+
*       -1.100000000E+01               0
GRID*               2395               0-2.384423063E+00-9.084526910E+00+
*       -1.100000000E+01               0
GRID*               2396               0-3.855868781E+00-1.243919803E+01+
*       -1.100000000E+01               0
GRID*               2397               0-4.224043758E+00-1.109471000E+01+
*       -1.100000000E+01               0
GRID*               2398               0-3.871653738E+00-9.732586194E+00+
*       -1.100000000E+01               0
GRID*               2399               0-3.921103395E+00-8.063671972E+00+
*       -1.100000000E+01               0
GRID*               2400               0-2.370370603E+00-1.680928832E+01+
*       -1.100000000E+01               0
GRID*               2401               0-1.006900916E+00-1.634878597E+01+
*       -1.100000000E+01               0
GRID*               2402               02.1910923478E-01-1.583429446E+01+
*       -1.100000000E+01               0
GRID*               2403               01.2102887948E+00-1.495100755E+01+
*       -1.100000000E+01               0
GRID*               2404               02.5822497656E+00-1.407067264E+01+
*       -1.100000000E+01               0
GRID*               2405               03.9234897401E+00-1.348028599E+01+
*       -1.100000000E+01               0
GRID*               2406               01.2154442961E-01-1.679791850E+01+
*       -1.100000000E+01               0
GRID*               2407               0-4.353876490E+00-1.593183223E+01+
*       -1.100000000E+01               0
GRID*               2408               0-3.488271184E+00-1.620075245E+01+
*       -1.100000000E+01               0
GRID*               2409               0-5.948140851E-01-1.440135019E+01+
*       -1.100000000E+01               0
GRID*               2410               0-2.531772907E+00-1.513137154E+01+
*       -1.100000000E+01               0
GRID*               2411               0-4.049438173E+00-1.509934809E+01+
*       -1.100000000E+01               0
GRID*               2412               01.0574986509E+00-1.319827741E+01+
*       -1.100000000E+01               0
GRID*               2413               02.8001699771E+00-1.231571627E+01+
*       -1.100000000E+01               0
GRID*               2414               04.0347231944E+00-1.140734524E+01+
*       -1.100000000E+01               0
GRID*               2415               04.1887063290E+00-1.245369856E+01+
*       -1.100000000E+01               0
GRID*               2416               04.2130032219E+00-1.037748162E+01+
*       -1.100000000E+01               0
GRID*               2417               03.7355863220E+001.1520014050E+01+
*       -1.100000000E+01               0
GRID*               2418               02.3751355024E+001.0649749827E+01+
*       -1.100000000E+01               0
GRID*               2419               08.3279004481E-019.6759658671E+00+
*       -1.100000000E+01               0
GRID*               2420               0-8.445667624E-018.7372858416E+00+
*       -1.100000000E+01               0
GRID*               2421               0-2.454408569E+007.8324465737E+00+
*       -1.100000000E+01               0
GRID*               2422               0-3.866973964E+007.1790147576E+00+
*       -1.100000000E+01               0
GRID*               2423               03.7535203531E+001.2845533704E+01+
*       -1.100000000E+01               0
GRID*               2424               03.9559883658E+001.4359438259E+01+
*       -1.100000000E+01               0
GRID*               2425               04.0063077562E+001.5813671632E+01+
*       -1.100000000E+01               0
GRID*               2426               0-3.864274608E+008.4104006697E+00+
*       -1.100000000E+01               0
GRID*               2427               0-2.620667233E+009.5157016801E+00+
*       -1.100000000E+01               0
GRID*               2428               0-8.230234827E-011.0454611916E+01+
*       -1.100000000E+01               0
GRID*               2429               08.0878140945E-011.1357899618E+01+
*       -1.100000000E+01               0
GRID*               2430               02.3348059819E+001.2189338216E+01+
*       -1.100000000E+01               0
GRID*               2431               02.3451372093E+001.6935862165E+01+
*       -1.100000000E+01               0
GRID*               2432               01.0591066122E+001.6347721382E+01+
*       -1.100000000E+01               0
GRID*               2433               0-5.296368813E-021.5442131644E+01+
*       -1.100000000E+01               0
GRID*               2434               0-1.287480178E+001.5543113329E+01+
*       -1.100000000E+01               0
GRID*               2435               0-2.440635648E+001.4491832103E+01+
*       -1.100000000E+01               0
GRID*               2436               0-3.759525969E+001.3598828723E+01+
*       -1.100000000E+01               0
GRID*               2437               0-3.225017142E-011.6557899345E+01+
*       -1.100000000E+01               0
GRID*               2438               08.6216202080E-011.3023979653E+01+
*       -1.100000000E+01               0
GRID*               2439               01.0396273690E+001.4677253658E+01+
*       -1.100000000E+01               0
GRID*               2440               02.4245034956E+001.3759348599E+01+
*       -1.100000000E+01               0
GRID*               2441               03.2810370444E+001.6531912118E+01+
*       -1.100000000E+01               0
GRID*               2442               02.5842578665E+001.5486910651E+01+
*       -1.100000000E+01               0
GRID*               2443               0-3.853249559E+001.0507859605E+01+
*       -1.100000000E+01               0
GRID*               2444               0-2.385870582E+001.1266748821E+01+
*       -1.100000000E+01               0
GRID*               2445               0-7.649908292E-011.2172374251E+01+
*       -1.100000000E+01               0
GRID*               2446               0-4.109395559E+009.4256407196E+00+
*       -1.100000000E+01               0
GRID*               2447               0-3.891990673E+001.2039269771E+01+
*       -1.100000000E+01               0
GRID*               2448               0-2.334889182E+001.2930305677E+01+
*       -1.100000000E+01               0
GRID*               2449               0-7.124795258E-011.4040307193E+01+
*       -1.100000000E+01               0
GRID*               2450               0-4.010364519E+00-3.160699827E-01+
*       -1.100000000E+01               0
GRID*               2451               0-2.715352389E+006.6420251564E-01+
*       -1.100000000E+01               0
GRID*               2452               0-8.723524644E-011.5459173823E+00+
*       -1.100000000E+01               0
GRID*               2453               08.4703956560E-012.4992151684E+00+
*       -1.100000000E+01               0
GRID*               2454               02.4632469097E+003.5060408025E+00+
*       -1.100000000E+01               0
GRID*               2455               03.8746863821E+004.2798660061E+00+
*       -1.100000000E+01               0
GRID*               2456               0-9.271219365E-01-4.662230633E-01+
*       -1.100000000E+01               0
GRID*               2457               0-4.280540664E+00-1.643923212E+00+
*       -1.100000000E+01               0
GRID*               2458               0-3.920542871E+00-2.936576978E+00+
*       -1.100000000E+01               0
GRID*               2459               0-2.747236319E+00-1.538013580E+00+
*       -1.100000000E+01               0
GRID*               2460               08.2836632697E-015.3025995301E-01+
*       -1.100000000E+01               0
GRID*               2461               04.2412169941E+001.6472254095E+00+
*       -1.100000000E+01               0
GRID*               2462               03.8938215579E+002.9367121552E+00+
*       -1.100000000E+01               0
GRID*               2463               02.6601561924E+001.5664690373E+00+
*       -1.100000000E+01               0
GRID*               2464               02.6403086909E+005.3074251412E+00+
*       -1.100000000E+01               0
GRID*               2465               02.4605875701E+007.0616257070E+00+
*       -1.100000000E+01               0
GRID*               2466               02.6395384977E+008.8848347442E+00+
*       -1.100000000E+01               0
GRID*               2467               03.8742653528E+006.3767923143E+00+
*       -1.100000000E+01               0
GRID*               2468               04.1201398204E+005.3357843704E+00+
*       -1.100000000E+01               0
GRID*               2469               03.8470302788E+001.0207085137E+01+
*       -1.100000000E+01               0
GRID*               2470               04.2299773002E+008.9670324091E+00+
*       -1.100000000E+01               0
GRID*               2471               03.8863612466E+007.6858751078E+00+
*       -1.100000000E+01               0
GRID*               2472               08.5581607935E-014.3639767671E+00+
*       -1.100000000E+01               0
GRID*               2473               08.5277804318E-016.1591523778E+00+
*       -1.100000000E+01               0
GRID*               2474               08.4499837656E-017.9191774878E+00+
*       -1.100000000E+01               0
GRID*               2475               0-8.331755804E-015.2386140676E+00+
*       -1.100000000E+01               0
GRID*               2476               0-2.632197650E+006.1178111926E+00+
*       -1.100000000E+01               0
GRID*               2477               0-8.437388322E-017.0026962469E+00+
*       -1.100000000E+01               0
GRID*               2478               0-8.149392709E-013.4292480975E+00+
*       -1.100000000E+01               0
GRID*               2479               0-2.446827762E+002.5773011999E+00+
*       -1.100000000E+01               0
GRID*               2480               0-2.427044671E+004.3219279317E+00+
*       -1.100000000E+01               0
GRID*               2481               0-3.897196881E+001.9306115210E+00+
*       -1.100000000E+01               0
GRID*               2482               0-4.162937109E+008.3130960709E-01+
*       -1.100000000E+01               0
GRID*               2483               0-3.870674949E+005.0622088365E+00+
*       -1.100000000E+01               0
GRID*               2484               0-4.115596803E+006.1492177779E+00+
*       -1.100000000E+01               0
GRID*               2485               0-3.937630800E+003.5078878555E+00+
*       -1.100000000E+01               0
GRID*               2486               0-9.851330084E-01-1.675077796E+01+
*       -6.500000000E+00               0
GRID*               2487               0-1.883765944E+00-1.586715590E+01+
*       -6.500000000E+00               0
GRID*               2488               0-3.273017884E+00-1.475663868E+01+
*       -6.500000000E+00               0
GRID*               2489               0-3.184154350E+00-1.668068618E+01+
*       -6.500000000E+00               0
GRID*               2490               0-1.866731852E+00-1.699955147E+01+
*       -6.500000000E+00               0
GRID*               2491               09.8579500921E-011.6750869787E+01+
*       -6.500000000E+00               0
GRID*               2492               01.8843003259E+001.5867267626E+01+
*       -6.500000000E+00               0
GRID*               2493               03.2732892611E+001.4756706282E+01+
*       -6.500000000E+00               0
GRID*               2494               03.1846475499E+001.6680835810E+01+
*       -6.500000000E+00               0
GRID*               2495               01.8674348566E+001.6999700495E+01+
*       -6.500000000E+00               0
GRID*               2496               04.2807999654E+00-1.702833791E+01+
*       -6.500000000E+00               0
GRID*               2497               03.4372661265E+00-1.742300464E+01+
*       -6.500000000E+00               0
GRID*               2498               04.2229532315E+00-1.790490661E+01+
*       -6.500000000E+00               0
GRID*               2499               0-4.280712339E+001.7028312783E+01+
*       -6.500000000E+00               0
GRID*               2500               0-3.437068761E+001.7422934786E+01+
*       -6.500000000E+00               0
GRID*               2501               0-4.222853962E+001.7904864259E+01+
*       -6.500000000E+00               0
GRID*               2502               03.3794587531E+001.8854976418E+00+
*       -6.500000000E+00               0
GRID*               2503               01.7163683637E+008.9875432483E-01+
*       -6.500000000E+00               0
GRID*               2504               0-2.251689224E-04-2.101740372E-03+
*       -6.500000000E+00               0
GRID*               2505               0-1.716963605E+00-9.015160087E-01+
*       -6.500000000E+00               0
GRID*               2506               0-3.380180367E+00-1.885502577E+00+
*       -6.500000000E+00               0
GRID*               2507               0-1.634379157E+00-2.842297881E+00+
*       -6.500000000E+00               0
GRID*               2508               01.1788035101E-01-3.892984065E+00+
*       -6.500000000E+00               0
GRID*               2509               01.8555232217E+00-5.001833527E+00+
*       -6.500000000E+00               0
GRID*               2510               03.4929627859E+00-6.161755610E+00+
*       -6.500000000E+00               0
GRID*               2511               03.4802650090E+00-2.297684259E+00+
*       -6.500000000E+00               0
GRID*               2512               01.8182561990E+00-3.101556861E+00+
*       -6.500000000E+00               0
GRID*               2513               03.6424863932E+00-4.318481756E+00+
*       -6.500000000E+00               0
GRID*               2514               05.9438899416E-02-1.977661023E+00+
*       -6.500000000E+00               0
GRID*               2515               01.7773246387E+00-1.119081768E+00+
*       -6.500000000E+00               0
GRID*               2516               03.5990977787E+00-2.183255361E-01+
*       -6.500000000E+00               0
GRID*               2517               0-3.315967478E+00-3.684732488E+00+
*       -6.500000000E+00               0
GRID*               2518               0-1.581305292E+00-4.676317690E+00+
*       -6.500000000E+00               0
GRID*               2519               01.5611918887E-01-5.721115731E+00+
*       -6.500000000E+00               0
GRID*               2520               01.8631556980E+00-6.777732185E+00+
*       -6.500000000E+00               0
GRID*               2521               03.5101666052E+00-7.752953190E+00+
*       -6.500000000E+00               0
GRID*               2522               0-3.254353960E+00-7.208793435E+00+
*       -6.500000000E+00               0
GRID*               2523               0-1.500486549E+00-8.259090334E+00+
*       -6.500000000E+00               0
GRID*               2524               02.4722396603E-01-9.295344915E+00+
*       -6.500000000E+00               0
GRID*               2525               01.9758224717E+00-1.030106172E+01+
*       -6.500000000E+00               0
GRID*               2526               03.5946891206E+00-1.126525901E+01+
*       -6.500000000E+00               0
GRID*               2527               0-3.283955363E+00-5.440874570E+00+
*       -6.500000000E+00               0
GRID*               2528               0-1.545349382E+00-6.467880112E+00+
*       -6.500000000E+00               0
GRID*               2529               03.6981120477E+00-9.518330062E+00+
*       -6.500000000E+00               0
GRID*               2530               01.9139338587E+00-8.522819272E+00+
*       -6.500000000E+00               0
GRID*               2531               01.8853802071E-01-7.507076215E+00+
*       -6.500000000E+00               0
GRID*               2532               0-3.218813268E+00-1.087018756E+01+
*       -6.500000000E+00               0
GRID*               2533               0-1.419242003E+00-1.200450795E+01+
*       -6.500000000E+00               0
GRID*               2534               04.0053697508E-01-1.305327779E+01+
*       -6.500000000E+00               0
GRID*               2535               02.1499535532E+00-1.390441590E+01+
*       -6.500000000E+00               0
GRID*               2536               03.6783667519E+00-1.466160912E+01+
*       -6.500000000E+00               0
GRID*               2537               03.7674276354E+00-1.299963755E+01+
*       -6.500000000E+00               0
GRID*               2538               02.0366415311E+00-1.210760341E+01+
*       -6.500000000E+00               0
GRID*               2539               02.9921370297E-01-1.114091870E+01+
*       -6.500000000E+00               0
GRID*               2540               0-3.239618676E+00-9.014082721E+00+
*       -6.500000000E+00               0
GRID*               2541               0-1.472533069E+00-1.009708079E+01+
*       -6.500000000E+00               0
GRID*               2542               02.3363783215E+00-1.556693780E+01+
*       -6.500000000E+00               0
GRID*               2543               02.4773190947E+00-1.693711759E+01+
*       -6.500000000E+00               0
GRID*               2544               03.7418424094E+00-1.615363282E+01+
*       -6.500000000E+00               0
GRID*               2545               0-3.217872469E+00-1.281887748E+01+
*       -6.500000000E+00               0
GRID*               2546               0-1.358205369E+00-1.418409653E+01+
*       -6.500000000E+00               0
GRID*               2547               06.1876924480E-01-1.509905966E+01+
*       -6.500000000E+00               0
GRID*               2548               0-7.054583552E-01-1.575110334E+01+
*       -6.500000000E+00               0
GRID*               2549               08.3674128577E-02-1.659752736E+01+
*       -6.500000000E+00               0
GRID*               2550               01.2975875000E+00-1.662281562E+01+
*       -6.500000000E+00               0
GRID*               2551               01.6336203192E+002.8412057708E+00+
*       -6.500000000E+00               0
GRID*               2552               0-1.187077371E-013.8919696608E+00+
*       -6.500000000E+00               0
GRID*               2553               0-1.856110765E+005.0012458153E+00+
*       -6.500000000E+00               0
GRID*               2554               0-3.493198459E+006.1615443846E+00+
*       -6.500000000E+00               0
GRID*               2555               0-3.480783148E+002.2968052939E+00+
*       -6.500000000E+00               0
GRID*               2556               0-1.819045935E+003.1002674904E+00+
*       -6.500000000E+00               0
GRID*               2557               0-3.642778483E+004.3180490388E+00+
*       -6.500000000E+00               0
GRID*               2558               0-6.018765695E-021.9755723457E+00+
*       -6.500000000E+00               0
GRID*               2559               0-1.777942967E+001.1170689681E+00+
*       -6.500000000E+00               0
GRID*               2560               0-3.599448400E+002.1752997191E-01+
*       -6.500000000E+00               0
GRID*               2561               03.3156007923E+003.6844592178E+00+
*       -6.500000000E+00               0
GRID*               2562               01.5808081284E+004.6758314975E+00+
*       -6.500000000E+00               0
GRID*               2563               0-1.565763579E-015.7206976846E+00+
*       -6.500000000E+00               0
GRID*               2564               0-1.863440040E+006.7774926244E+00+
*       -6.500000000E+00               0
GRID*               2565               0-3.510271770E+007.7528655463E+00+
*       -6.500000000E+00               0
GRID*               2566               03.2542398950E+007.2087654967E+00+
*       -6.500000000E+00               0
GRID*               2567               01.5003745560E+008.2590653378E+00+
*       -6.500000000E+00               0
GRID*               2568               0-2.472619992E-019.2953392975E+00+
*       -6.500000000E+00               0
GRID*               2569               0-1.975787565E+001.0301073186E+01+
*       -6.500000000E+00               0
GRID*               2570               0-3.594642679E+001.1265270327E+01+
*       -6.500000000E+00               0
GRID*               2571               03.2837530882E+005.4407206325E+00+
*       -6.500000000E+00               0
GRID*               2572               01.5450880843E+006.4676796895E+00+
*       -6.500000000E+00               0
GRID*               2573               0-3.698132954E+009.5183102911E+00+
*       -6.500000000E+00               0
GRID*               2574               0-1.914043151E+008.5227420397E+00+
*       -6.500000000E+00               0
GRID*               2575               0-1.887415451E-017.5069133607E+00+
*       -6.500000000E+00               0
GRID*               2576               03.2188851707E+001.0870229006E+01+
*       -6.500000000E+00               0
GRID*               2577               01.4194355421E+001.2004574047E+01+
*       -6.500000000E+00               0
GRID*               2578               0-4.002677631E-011.3053340023E+01+
*       -6.500000000E+00               0
GRID*               2579               0-2.149715986E+001.3904446669E+01+
*       -6.500000000E+00               0
GRID*               2580               0-3.678239507E+001.4661612281E+01+
*       -6.500000000E+00               0
GRID*               2581               0-3.767347716E+001.2999647673E+01+
*       -6.500000000E+00               0
GRID*               2582               0-2.036508659E+001.2107631694E+01+
*       -6.500000000E+00               0
GRID*               2583               0-2.991087711E-011.1140952172E+01+
*       -6.500000000E+00               0
GRID*               2584               03.2396011550E+009.0140909151E+00+
*       -6.500000000E+00               0
GRID*               2585               01.4725646548E+001.0097101743E+01+
*       -6.500000000E+00               0
GRID*               2586               0-2.336094639E+001.5566927663E+01+
*       -6.500000000E+00               0
GRID*               2587               0-2.477006529E+001.6937053847E+01+
*       -6.500000000E+00               0
GRID*               2588               0-3.741702016E+001.6153603450E+01+
*       -6.500000000E+00               0
GRID*               2589               03.2180205603E+001.2818928940E+01+
*       -6.500000000E+00               0
GRID*               2590               01.3585491251E+001.4184164917E+01+
*       -6.500000000E+00               0
GRID*               2591               0-6.183751482E-011.5099088695E+01+
*       -6.500000000E+00               0
GRID*               2592               07.0597744138E-011.5751166099E+01+
*       -6.500000000E+00               0
GRID*               2593               0-8.312149868E-021.6597548177E+01+
*       -6.500000000E+00               0
GRID*               2594               0-1.297153972E+001.6622775878E+01+
*       -6.500000000E+00               0
GRID*               2595               0-1.288432664E+001.6537987630E+01+
*       6.5000000000E+00               0
GRID*               2596               0-2.630277495E+001.5639460068E+01+
*       6.5000000000E+00               0
GRID*               2597               0-3.867077861E+001.4789213583E+01+
*       6.5000000000E+00               0
GRID*               2598               0-4.100658364E+001.7765697055E+01+
*       6.5000000000E+00               0
GRID*               2599               0-4.043961748E+001.6300549768E+01+
*       6.5000000000E+00               0
GRID*               2600               0-2.797845983E+001.7191094701E+01+
*       6.5000000000E+00               0
GRID*               2601               01.5226967453E+00-1.676379810E+01+
*       6.5000000000E+00               0
GRID*               2602               02.6575801924E+00-1.589212669E+01+
*       6.5000000000E+00               0
GRID*               2603               03.8234804525E+00-1.493317073E+01+
*       6.5000000000E+00               0
GRID*               2604               04.1067723182E+00-1.778782777E+01+
*       6.5000000000E+00               0
GRID*               2605               04.0443345437E+00-1.637275799E+01+
*       6.5000000000E+00               0
GRID*               2606               02.8280116604E+00-1.727329408E+01+
*       6.5000000000E+00               0
GRID*               2607               04.2289486436E+001.6815822357E+01+
*       6.5000000000E+00               0
GRID*               2608               03.3339447175E+001.7339295181E+01+
*       6.5000000000E+00               0
GRID*               2609               04.1794535714E+001.7851513637E+01+
*       6.5000000000E+00               0
GRID*               2610               0-4.115379502E+00-1.687856440E+01+
*       6.5000000000E+00               0
GRID*               2611               0-3.271524609E+00-1.742631032E+01+
*       6.5000000000E+00               0
GRID*               2612               0-4.147865080E+00-1.787697921E+01+
*       6.5000000000E+00               0
GRID*               2613               03.8852625919E+004.2904495705E+00+
*       6.5000000000E+00               0
GRID*               2614               02.4962886216E+003.5207534209E+00+
*       6.5000000000E+00               0
GRID*               2615               08.9852189373E-012.5020578663E+00+
*       6.5000000000E+00               0
GRID*               2616               0-8.182234780E-011.4917465634E+00+
*       6.5000000000E+00               0
GRID*               2617               0-2.456547612E+004.6691947967E-01+
*       6.5000000000E+00               0
GRID*               2618               0-3.891809424E+00-2.941111468E-01+
*       6.5000000000E+00               0
GRID*               2619               0-4.015274229E+009.3303409760E+00+
*       6.5000000000E+00               0
GRID*               2620               0-2.733487046E+008.2816781498E+00+
*       6.5000000000E+00               0
GRID*               2621               0-8.898709589E-017.3024796077E+00+
*       6.5000000000E+00               0
GRID*               2622               08.3074623433E-016.3310900082E+00+
*       6.5000000000E+00               0
GRID*               2623               02.6406720700E+005.3804718262E+00+
*       6.5000000000E+00               0
GRID*               2624               0-8.177584965E-013.4916446245E+00+
*       6.5000000000E+00               0
GRID*               2625               0-8.146331601E-015.4183022991E+00+
*       6.5000000000E+00               0
GRID*               2626               08.7179268406E-014.4405435232E+00+
*       6.5000000000E+00               0
GRID*               2627               0-2.645550123E+002.5116922371E+00+
*       6.5000000000E+00               0
GRID*               2628               0-2.426253596E+004.5548640316E+00+
*       6.5000000000E+00               0
GRID*               2629               0-2.454804480E+006.3806580967E+00+
*       6.5000000000E+00               0
GRID*               2630               0-3.900332730E+007.1686923313E+00+
*       6.5000000000E+00               0
GRID*               2631               0-4.169299458E+008.2799018631E+00+
*       6.5000000000E+00               0
GRID*               2632               0-3.891365500E+001.1642982289E+00+
*       6.5000000000E+00               0
GRID*               2633               0-4.239031102E+002.5130902113E+00+
*       6.5000000000E+00               0
GRID*               2634               0-3.890343438E+003.8893498113E+00+
*       6.5000000000E+00               0
GRID*               2635               0-3.941628955E+005.5717143809E+00+
*       6.5000000000E+00               0
GRID*               2636               0-2.813784162E+001.0311322321E+01+
*       6.5000000000E+00               0
GRID*               2637               0-1.019220979E+001.1228303643E+01+
*       6.5000000000E+00               0
GRID*               2638               07.0895409440E-011.2202149770E+01+
*       6.5000000000E+00               0
GRID*               2639               02.3645333750E+001.3186761468E+01+
*       6.5000000000E+00               0
GRID*               2640               03.8240559530E+001.3859169458E+01+
*       6.5000000000E+00               0
GRID*               2641               07.4505137308E-011.0171656638E+01+
*       6.5000000000E+00               0
GRID*               2642               07.5541302202E-018.2243703636E+00+
*       6.5000000000E+00               0
GRID*               2643               0-9.920243694E-019.2530596113E+00+
*       6.5000000000E+00               0
GRID*               2644               02.4072173523E+007.2571095360E+00+
*       6.5000000000E+00               0
GRID*               2645               03.8679283417E+006.4768589061E+00+
*       6.5000000000E+00               0
GRID*               2646               04.1192216186E+005.3702407685E+00+
*       6.5000000000E+00               0
GRID*               2647               02.5941074731E+001.1124631057E+01+
*       6.5000000000E+00               0
GRID*               2648               02.3844020869E+009.0832867669E+00+
*       6.5000000000E+00               0
GRID*               2649               03.8558372115E+001.2438129609E+01+
*       6.5000000000E+00               0
GRID*               2650               04.2240218478E+001.1093396083E+01+
*       6.5000000000E+00               0
GRID*               2651               03.8716393084E+009.7311563362E+00+
*       6.5000000000E+00               0
GRID*               2652               03.9210928809E+008.0620461836E+00+
*       6.5000000000E+00               0
GRID*               2653               02.3703448282E+001.6809082676E+01+
*       6.5000000000E+00               0
GRID*               2654               01.0068821457E+001.6348595770E+01+
*       6.5000000000E+00               0
GRID*               2655               0-2.191365862E-011.5834110594E+01+
*       6.5000000000E+00               0
GRID*               2656               0-1.210309693E+001.4950781463E+01+
*       6.5000000000E+00               0
GRID*               2657               0-2.582263682E+001.4070477037E+01+
*       6.5000000000E+00               0
GRID*               2658               0-3.923496203E+001.3480169981E+01+
*       6.5000000000E+00               0
GRID*               2659               0-1.215577812E-011.6797825677E+01+
*       6.5000000000E+00               0
GRID*               2660               04.3538482287E+001.5931263438E+01+
*       6.5000000000E+00               0
GRID*               2661               03.4882317102E+001.6200328963E+01+
*       6.5000000000E+00               0
GRID*               2662               05.9478239444E-011.4400937962E+01+
*       6.5000000000E+00               0
GRID*               2663               02.5317312717E+001.5130869952E+01+
*       6.5000000000E+00               0
GRID*               2664               04.0494013017E+001.5098670907E+01+
*       6.5000000000E+00               0
GRID*               2665               0-1.057521114E+001.3197898103E+01+
*       6.5000000000E+00               0
GRID*               2666               0-2.800179561E+001.2315458954E+01+
*       6.5000000000E+00               0
GRID*               2667               0-4.034727086E+001.1407199904E+01+
*       6.5000000000E+00               0
GRID*               2668               0-4.188708574E+001.2453581015E+01+
*       6.5000000000E+00               0
GRID*               2669               0-4.213002827E+001.0377332773E+01+
*       6.5000000000E+00               0
GRID*               2670               0-3.735557120E+00-1.152023759E+01+
*       6.5000000000E+00               0
GRID*               2671               0-2.375067815E+00-1.065018278E+01+
*       6.5000000000E+00               0
GRID*               2672               0-8.326869670E-01-9.676669364E+00+
*       6.5000000000E+00               0
GRID*               2673               08.4467068406E-01-8.738316580E+00+
*       6.5000000000E+00               0
GRID*               2674               02.4544922613E+00-7.833835545E+00+
*       6.5000000000E+00               0
GRID*               2675               03.8670159484E+00-7.180727917E+00+
*       6.5000000000E+00               0
GRID*               2676               0-3.753516545E+00-1.284571217E+01+
*       6.5000000000E+00               0
GRID*               2677               0-3.956021709E+00-1.435954900E+01+
*       6.5000000000E+00               0
GRID*               2678               0-4.006393372E+00-1.581376502E+01+
*       6.5000000000E+00               0
GRID*               2679               03.8643209151E+00-8.411999530E+00+
*       6.5000000000E+00               0
GRID*               2680               02.6207601742E+00-9.516969883E+00+
*       6.5000000000E+00               0
GRID*               2681               08.2316108962E-01-1.045549437E+01+
*       6.5000000000E+00               0
GRID*               2682               0-8.086695859E-01-1.135847700E+01+
*       6.5000000000E+00               0
GRID*               2683               0-2.334760944E+00-1.218968325E+01+
*       6.5000000000E+00               0
GRID*               2684               0-2.345516973E+00-1.693600915E+01+
*       6.5000000000E+00               0
GRID*               2685               0-1.059499145E+00-1.634777116E+01+
*       6.5000000000E+00               0
GRID*               2686               05.2684791427E-02-1.544232331E+01+
*       6.5000000000E+00               0
GRID*               2687               01.2871748918E+00-1.554330201E+01+
*       6.5000000000E+00               0
GRID*               2688               02.4406399790E+00-1.449221726E+01+
*       6.5000000000E+00               0
GRID*               2689               03.7595879681E+00-1.359963263E+01+
*       6.5000000000E+00               0
GRID*               2690               03.2188592690E-01-1.655794832E+01+
*       6.5000000000E+00               0
GRID*               2691               0-8.620974442E-01-1.302435147E+01+
*       6.5000000000E+00               0
GRID*               2692               0-1.039774982E+00-1.467748277E+01+
*       6.5000000000E+00               0
GRID*               2693               0-2.424543211E+00-1.375957866E+01+
*       6.5000000000E+00               0
GRID*               2694               0-3.281243635E+00-1.653204719E+01+
*       6.5000000000E+00               0
GRID*               2695               0-2.584443898E+00-1.548706037E+01+
*       6.5000000000E+00               0
GRID*               2696               03.8533205620E+00-1.050920134E+01+
*       6.5000000000E+00               0
GRID*               2697               02.3859912899E+00-1.126774021E+01+
*       6.5000000000E+00               0
GRID*               2698               07.6508040182E-01-1.217302131E+01+
*       6.5000000000E+00               0
GRID*               2699               04.1094474772E+00-9.427156751E+00+
*       6.5000000000E+00               0
GRID*               2700               03.8920402902E+00-1.204037951E+01+
*       6.5000000000E+00               0
GRID*               2701               02.3349453990E+00-1.293101844E+01+
*       6.5000000000E+00               0
GRID*               2702               07.1238952550E-01-1.404070635E+01+
*       6.5000000000E+00               0
GRID*               2703               04.0103875338E+003.1398919580E-01+
*       6.5000000000E+00               0
GRID*               2704               02.7154071122E+00-6.659603414E-01+
*       6.5000000000E+00               0
GRID*               2705               08.7244689389E-01-1.547227339E+00+
*       6.5000000000E+00               0
GRID*               2706               0-8.469376330E-01-2.500128367E+00+
*       6.5000000000E+00               0
GRID*               2707               0-2.463167887E+00-3.506600110E+00+
*       6.5000000000E+00               0
GRID*               2708               0-3.874646135E+00-4.280139940E+00+
*       6.5000000000E+00               0
GRID*               2709               09.2719053271E-014.6488680496E-01+
*       6.5000000000E+00               0
GRID*               2710               04.2805512772E+001.6418031853E+00+
*       6.5000000000E+00               0
GRID*               2711               03.9205475611E+002.9345771862E+00+
*       6.5000000000E+00               0
GRID*               2712               02.7472685633E+001.5362521900E+00+
*       6.5000000000E+00               0
GRID*               2713               0-8.282904176E-01-5.311961799E-01+
*       6.5000000000E+00               0
GRID*               2714               0-4.241195558E+00-1.647441844E+00+
*       6.5000000000E+00               0
GRID*               2715               0-3.893784065E+00-2.936988308E+00+
*       6.5000000000E+00               0
GRID*               2716               0-2.660100361E+00-1.567001320E+00+
*       6.5000000000E+00               0
GRID*               2717               0-2.640238216E+00-5.307925991E+00+
*       6.5000000000E+00               0
GRID*               2718               0-2.460511649E+00-7.062126713E+00+
*       6.5000000000E+00               0
GRID*               2719               0-2.639474960E+00-8.885266348E+00+
*       6.5000000000E+00               0
GRID*               2720               0-3.874231625E+00-6.377048615E+00+
*       6.5000000000E+00               0
GRID*               2721               0-4.120116014E+00-5.336015516E+00+
*       6.5000000000E+00               0
GRID*               2722               0-3.846999962E+00-1.020730554E+01+
*       6.5000000000E+00               0
GRID*               2723               0-4.229957993E+00-8.967210032E+00+
*       6.5000000000E+00               0
GRID*               2724               0-3.886332374E+00-7.686115792E+00+
*       6.5000000000E+00               0
GRID*               2725               0-8.557244960E-01-4.364853276E+00+
*       6.5000000000E+00               0
GRID*               2726               0-8.526810962E-01-6.159981766E+00+
*       6.5000000000E+00               0
GRID*               2727               0-8.449106671E-01-7.919947819E+00+
*       6.5000000000E+00               0
GRID*               2728               08.3326339106E-01-5.239816149E+00+
*       6.5000000000E+00               0
GRID*               2729               02.6322644434E+00-6.119348157E+00+
*       6.5000000000E+00               0
GRID*               2730               08.4382849590E-01-7.003822186E+00+
*       6.5000000000E+00               0
GRID*               2731               08.1502355964E-01-3.430508665E+00+
*       6.5000000000E+00               0
GRID*               2732               02.4468858950E+00-2.578957061E+00+
*       6.5000000000E+00               0
GRID*               2733               02.4271065690E+00-4.323517361E+00+
*       6.5000000000E+00               0
GRID*               2734               03.8972265901E+00-1.932634180E+00+
*       6.5000000000E+00               0
GRID*               2735               04.1629542900E+00-8.334099707E-01+
*       6.5000000000E+00               0
GRID*               2736               03.8707070042E+00-5.064076290E+00+
*       6.5000000000E+00               0
GRID*               2737               04.1156263629E+00-6.151053581E+00+
*       6.5000000000E+00               0
GRID*               2738               03.9376565854E+00-3.509856938E+00+
*       6.5000000000E+00               0
GRID*               2739               0-3.945572410E+00-1.489051124E+01+
*       1.1000000000E+01               0
GRID*               2740               0-2.890229123E+00-1.582899409E+01+
*       1.1000000000E+01               0
GRID*               2741               0-2.037851638E+00-1.684230113E+01+
*       1.1000000000E+01               0
GRID*               2742               0-9.031827073E-01-1.677944551E+01+
*       1.1000000000E+01               0
GRID*               2743               0-4.148303936E+001.4795835898E+01+
*       1.1000000000E+01               0
GRID*               2744               0-3.213290845E+001.5874184776E+01+
*       1.1000000000E+01               0
GRID*               2745               0-2.168912075E+001.6912564066E+01+
*       1.1000000000E+01               0
GRID*               2746               0-1.144194416E+001.6898920343E+01+
*       1.1000000000E+01               0
GRID*               2747               0-4.159489758E+001.7831773591E+01+
*       1.1000000000E+01               0
GRID*               2748               0-4.328090735E+001.5774561218E+01+
*       1.1000000000E+01               0
GRID*               2749               0-4.170449681E+001.6734149214E+01+
*       1.1000000000E+01               0
GRID*               2750               0-3.249386689E+001.7306967402E+01+
*       1.1000000000E+01               0
GRID*               2751               04.1116854934E+00-1.687600810E+01+
*       1.1000000000E+01               0
GRID*               2752               03.2747244049E+00-1.743503662E+01+
*       1.1000000000E+01               0
GRID*               2753               04.1519510147E+00-1.787819286E+01+
*       1.1000000000E+01               0
GRID*               2754               03.2911631378E+001.7322724321E+01+
*       1.1000000000E+01               0
GRID*               2755               04.1771510952E+001.6731471664E+01+
*       1.1000000000E+01               0
GRID*               2756               04.1636470780E+001.7785080810E+01+
*       1.1000000000E+01               0
GRID*               2757               03.9069540183E+00-4.304118787E+00+
*       1.1000000000E+01               0
GRID*               2758               02.5029291359E+00-3.603539678E+00+
*       1.1000000000E+01               0
GRID*               2759               08.7467687183E-01-2.656845880E+00+
*       1.1000000000E+01               0
GRID*               2760               0-8.418844340E-01-1.708573204E+00+
*       1.1000000000E+01               0
GRID*               2761               0-2.463977554E+00-7.401192458E-01+
*       1.1000000000E+01               0
GRID*               2762               0-3.875481710E+00-3.238887146E-03+
*       1.1000000000E+01               0
GRID*               2763               02.3452310781E+00-1.696533270E+01+
*       1.1000000000E+01               0
GRID*               2764               01.0531148982E+00-1.650584602E+01+
*       1.1000000000E+01               0
GRID*               2765               0-1.255146007E-01-1.608896677E+01+
*       1.1000000000E+01               0
GRID*               2766               0-1.312156673E+00-1.541276951E+01+
*       1.1000000000E+01               0
GRID*               2767               0-2.667855533E+00-1.426361647E+01+
*       1.1000000000E+01               0
GRID*               2768               0-3.954750553E+00-1.357368280E+01+
*       1.1000000000E+01               0
GRID*               2769               0-1.783299897E-02-1.692645734E+01+
*       1.1000000000E+01               0
GRID*               2770               03.9983230862E+00-1.583074053E+01+
*       1.1000000000E+01               0
GRID*               2771               02.5560044694E+00-1.548873988E+01+
*       1.1000000000E+01               0
GRID*               2772               06.4535685472E-01-1.465549845E+01+
*       1.1000000000E+01               0
GRID*               2773               0-1.067255020E+00-1.341206989E+01+
*       1.1000000000E+01               0
GRID*               2774               0-2.802997318E+00-1.239959042E+01+
*       1.1000000000E+01               0
GRID*               2775               0-4.033355400E+00-1.138227882E+01+
*       1.1000000000E+01               0
GRID*               2776               03.2754666632E+00-1.654598675E+01+
*       1.1000000000E+01               0
GRID*               2777               0-4.193478145E+00-1.251341713E+01+
*       1.1000000000E+01               0
GRID*               2778               0-4.288618087E+00-1.004756782E+01+
*       1.1000000000E+01               0
GRID*               2779               0-3.926069558E+00-8.771707700E+00+
*       1.1000000000E+01               0
GRID*               2780               0-3.889112504E+00-7.417130644E+00+
*       1.1000000000E+01               0
GRID*               2781               0-4.124393641E+00-6.340020273E+00+
*       1.1000000000E+01               0
GRID*               2782               0-3.878640711E+00-5.284219986E+00+
*       1.1000000000E+01               0
GRID*               2783               0-3.894498151E+00-3.939594920E+00+
*       1.1000000000E+01               0
GRID*               2784               0-4.242983159E+00-2.636578496E+00+
*       1.1000000000E+01               0
GRID*               2785               0-3.894299222E+00-1.343999774E+00+
*       1.1000000000E+01               0
GRID*               2786               0-2.466615487E+00-4.571021750E+00+
*       1.1000000000E+01               0
GRID*               2787               0-8.315745723E-01-5.489966843E+00+
*       1.1000000000E+01               0
GRID*               2788               09.3717692142E-01-6.440457245E+00+
*       1.1000000000E+01               0
GRID*               2789               02.7837287334E+00-7.412372082E+00+
*       1.1000000000E+01               0
GRID*               2790               04.0137438218E+00-8.432203772E+00+
*       1.1000000000E+01               0
GRID*               2791               0-2.663782012E+00-2.649468426E+00+
*       1.1000000000E+01               0
GRID*               2792               0-8.382026518E-01-3.604635808E+00+
*       1.1000000000E+01               0
GRID*               2793               08.9680143726E-01-4.534035632E+00+
*       1.1000000000E+01               0
GRID*               2794               02.7428030592E+00-5.427052564E+00+
*       1.1000000000E+01               0
GRID*               2795               04.0190923072E+00-6.382561665E+00+
*       1.1000000000E+01               0
GRID*               2796               04.1752272302E+00-5.347384541E+00+
*       1.1000000000E+01               0
GRID*               2797               04.2068622724E+00-7.405859483E+00+
*       1.1000000000E+01               0
GRID*               2798               0-2.771751581E+00-1.021076278E+01+
*       1.1000000000E+01               0
GRID*               2799               0-2.499616366E+00-8.241669325E+00+
*       1.1000000000E+01               0
GRID*               2800               0-2.648334066E+00-6.387745942E+00+
*       1.1000000000E+01               0
GRID*               2801               0-8.941932828E-01-9.318728599E+00+
*       1.1000000000E+01               0
GRID*               2802               09.1728133889E-01-8.388799713E+00+
*       1.1000000000E+01               0
GRID*               2803               0-8.368555724E-01-7.378341333E+00+
*       1.1000000000E+01               0
GRID*               2804               0-9.937037138E-01-1.134789953E+01+
*       1.1000000000E+01               0
GRID*               2805               08.2310781776E-01-1.036189794E+01+
*       1.1000000000E+01               0
GRID*               2806               02.7194890844E+00-9.419349174E+00+
*       1.1000000000E+01               0
GRID*               2807               07.4917766270E-01-1.239749557E+01+
*       1.1000000000E+01               0
GRID*               2808               02.4598962454E+00-1.131935125E+01+
*       1.1000000000E+01               0
GRID*               2809               03.8979672205E+00-1.053933035E+01+
*       1.1000000000E+01               0
GRID*               2810               04.1685966448E+00-9.473759113E+00+
*       1.1000000000E+01               0
GRID*               2811               02.6423558951E+00-1.335536870E+01+
*       1.1000000000E+01               0
GRID*               2812               03.9313926541E+00-1.455810726E+01+
*       1.1000000000E+01               0
GRID*               2813               04.2485135238E+00-1.320850691E+01+
*       1.1000000000E+01               0
GRID*               2814               03.8982973999E+00-1.191124315E+01+
*       1.1000000000E+01               0
GRID*               2815               0-3.880356648E+007.3853443532E+00+
*       1.1000000000E+01               0
GRID*               2816               0-2.655506034E+008.5204700290E+00+
*       1.1000000000E+01               0
GRID*               2817               0-8.904373015E-019.5224087136E+00+
*       1.1000000000E+01               0
GRID*               2818               07.8759065497E-011.0515394125E+01+
*       1.1000000000E+01               0
GRID*               2819               02.6311616648E+001.1480938393E+01+
*       1.1000000000E+01               0
GRID*               2820               03.9435207182E+001.2494515385E+01+
*       1.1000000000E+01               0
GRID*               2821               03.8028910483E+001.4826252613E+01+
*       1.1000000000E+01               0
GRID*               2822               02.5847130333E+001.3593819810E+01+
*       1.1000000000E+01               0
GRID*               2823               07.5264549278E-011.2520820478E+01+
*       1.1000000000E+01               0
GRID*               2824               0-9.244181311E-011.1411334021E+01+
*       1.1000000000E+01               0
GRID*               2825               0-2.491006105E+001.0384298586E+01+
*       1.1000000000E+01               0
GRID*               2826               0-3.893324024E+009.5574217070E+00+
*       1.1000000000E+01               0
GRID*               2827               0-4.125733279E+008.4460224056E+00+
*       1.1000000000E+01               0
GRID*               2828               04.1077444161E+001.3579967297E+01+
*       1.1000000000E+01               0
GRID*               2829               0-2.576550936E+001.2163010197E+01+
*       1.1000000000E+01               0
GRID*               2830               0-2.958222027E+001.4018668726E+01+
*       1.1000000000E+01               0
GRID*               2831               0-3.976057148E+001.2700794233E+01+
*       1.1000000000E+01               0
GRID*               2832               0-4.247652779E+001.3755407325E+01+
*       1.1000000000E+01               0
GRID*               2833               0-3.980064453E+001.1120281794E+01+
*       1.1000000000E+01               0
GRID*               2834               0-1.108019023E+001.3390229590E+01+
*       1.1000000000E+01               0
GRID*               2835               0-1.460534358E+001.5486003999E+01+
*       1.1000000000E+01               0
GRID*               2836               05.8066732261E-011.4792002870E+01+
*       1.1000000000E+01               0
GRID*               2837               03.3590707441E+001.6189812542E+01+
*       1.1000000000E+01               0
GRID*               2838               02.3132139412E+001.5490207207E+01+
*       1.1000000000E+01               0
GRID*               2839               04.2722731375E+001.5809039990E+01+
*       1.1000000000E+01               0
GRID*               2840               01.1776915702E+001.6537638153E+01+
*       1.1000000000E+01               0
GRID*               2841               0-1.376690239E-011.6527153516E+01+
*       1.1000000000E+01               0
GRID*               2842               02.3399920904E+001.6888349219E+01+
*       1.1000000000E+01               0
GRID*               2843               0-2.475748227E+006.6963607025E+00+
*       1.1000000000E+01               0
GRID*               2844               0-8.622113606E-015.7670412517E+00+
*       1.1000000000E+01               0
GRID*               2845               08.4735871856E-014.8203269334E+00+
*       1.1000000000E+01               0
GRID*               2846               02.4703579824E+003.8328050528E+00+
*       1.1000000000E+01               0
GRID*               2847               03.8796741447E+003.0711494213E+00+
*       1.1000000000E+01               0
GRID*               2848               0-8.787622564E-017.6467176724E+00+
*       1.1000000000E+01               0
GRID*               2849               08.2337946241E-016.7363995637E+00+
*       1.1000000000E+01               0
GRID*               2850               07.7887715003E-018.6261482754E+00+
*       1.1000000000E+01               0
GRID*               2851               02.6536313451E+005.7633419450E+00+
*       1.1000000000E+01               0
GRID*               2852               02.4146586894E+007.7601694362E+00+
*       1.1000000000E+01               0
GRID*               2853               02.4059049760E+009.5695499940E+00+
*       1.1000000000E+01               0
GRID*               2854               03.8704128144E+001.0324733851E+01+
*       1.1000000000E+01               0
GRID*               2855               04.1338632865E+001.1430514891E+01+
*       1.1000000000E+01               0
GRID*               2856               03.8948195433E+004.4130927785E+00+
*       1.1000000000E+01               0
GRID*               2857               04.2410545286E+005.7068380473E+00+
*       1.1000000000E+01               0
GRID*               2858               03.8874926591E+007.0743018973E+00+
*       1.1000000000E+01               0
GRID*               2859               03.9280956813E+008.7364752273E+00+
*       1.1000000000E+01               0
GRID*               2860               0-2.642033994E+001.0677542825E+00+
*       1.1000000000E+01               0
GRID*               2861               0-2.469329395E+002.8756024551E+00+
*       1.1000000000E+01               0
GRID*               2862               0-2.670939634E+004.7757581418E+00+
*       1.1000000000E+01               0
GRID*               2863               0-3.878079772E+002.1147697736E+00+
*       1.1000000000E+01               0
GRID*               2864               0-4.120913813E+001.0538383815E+00+
*       1.1000000000E+01               0
GRID*               2865               0-3.897410460E+006.0406251603E+00+
*       1.1000000000E+01               0
GRID*               2866               0-4.244968196E+004.7364765305E+00+
*       1.1000000000E+01               0
GRID*               2867               0-3.897071469E+003.4509653362E+00+
*       1.1000000000E+01               0
GRID*               2868               04.1235493263E+002.0106116868E+00+
*       1.1000000000E+01               0
GRID*               2869               03.8820964454E+009.5399826499E-01+
*       1.1000000000E+01               0
GRID*               2870               03.9006600334E+00-3.811814290E-01+
*       1.1000000000E+01               0
GRID*               2871               04.2487830566E+00-1.666327952E+00+
*       1.1000000000E+01               0
GRID*               2872               03.9093073780E+00-2.963725794E+00+
*       1.1000000000E+01               0
GRID*               2873               02.6506665150E+002.0167908366E+00+
*       1.1000000000E+01               0
GRID*               2874               02.4796084428E+002.1110910330E-01+
*       1.1000000000E+01               0
GRID*               2875               02.6838101465E+00-1.688385675E+00+
*       1.1000000000E+01               0
GRID*               2876               08.6738512251E-01-7.612702501E-01+
*       1.1000000000E+01               0
GRID*               2877               0-8.440332095E-011.5851694244E-01+
*       1.1000000000E+01               0
GRID*               2878               0-8.486518222E-012.0034204964E+00+
*       1.1000000000E+01               0
GRID*               2879               0-8.569982633E-013.8612638057E+00+
*       1.1000000000E+01               0
GRID*               2880               08.5900363086E-011.0937025931E+00+
*       1.1000000000E+01               0
GRID*               2881               08.5259302380E-012.9391274385E+00+
*       1.1000000000E+01               0
GRID*               2882               0-4.139542819E+00-1.776867740E+01+
*       1.1000000000E+01               0
GRID*               2883               0-3.163049491E+00-1.720658325E+01+
*       1.1000000000E+01               0
GRID*               2884               0-4.148454757E+00-1.636103940E+01+
*       1.1000000000E+01               0
GRID*               2885               06.6321919918E+00-2.400035789E+01+
*       -1.129289341E+01               0
GRID*               2886               06.4091285573E+00-2.302304561E+01+
*       -1.129289341E+01               0
GRID*               2887               06.0428927886E+00-2.208989615E+01+
*       -1.129289341E+01               0
GRID*               2888               05.5416718428E+00-2.122175206E+01+
*       -1.129289341E+01               0
GRID*               2889               04.9166559984E+00-2.043800991E+01+
*       -1.129289341E+01               0
GRID*               2890               04.1818120616E+00-1.975617351E+01+
*       -1.129289341E+01               0
GRID*               2891               03.3535527740E+00-1.919147620E+01+
*       -1.129289341E+01               0
GRID*               2892               02.4503812437E+00-1.875653042E+01+
*       -1.129289341E+01               0
GRID*               2893               01.4924713833E+00-1.846105590E+01+
*       -1.129289341E+01               0
GRID*               2894               05.0122262292E-01-1.831164899E+01+
*       -1.129289341E+01               0
GRID*               2895               0-5.012226382E-01-1.831164899E+01+
*       -1.129289341E+01               0
GRID*               2896               0-1.492471398E+00-1.846105591E+01+
*       -1.129289341E+01               0
GRID*               2897               0-2.450381258E+00-1.875653043E+01+
*       -1.129289341E+01               0
GRID*               2898               0-3.353552787E+00-1.919147621E+01+
*       -1.129289341E+01               0
GRID*               2899               0-4.181812074E+00-1.975617352E+01+
*       -1.129289341E+01               0
GRID*               2900               0-4.916656009E+00-2.043800992E+01+
*       -1.129289341E+01               0
GRID*               2901               0-5.541671851E+00-2.122175207E+01+
*       -1.129289341E+01               0
GRID*               2902               0-6.042892795E+00-2.208989617E+01+
*       -1.129289341E+01               0
GRID*               2903               0-6.409128562E+00-2.302304562E+01+
*       -1.129289341E+01               0
GRID*               2904               0-6.632191994E+00-2.400035790E+01+
*       -1.129289341E+01               0
GRID*               2905               0-6.707106590E+00-2.500000002E+01+
*       -1.129289341E+01               0
GRID*               2906               0-6.632192191E+00-2.599964216E+01+
*       -1.129289341E+01               0
GRID*               2907               0-6.409128575E+00-2.697695437E+01+
*       -1.129289341E+01               0
GRID*               2908               0-6.042892831E+00-2.791010384E+01+
*       -1.129289341E+01               0
GRID*               2909               0-5.541671260E+00-2.877824755E+01+
*       -1.129289341E+01               0
GRID*               2910               0-4.916656071E+00-2.956199015E+01+
*       -1.129289341E+01               0
GRID*               2911               0-4.181812530E+00-3.024382714E+01+
*       -1.129289341E+01               0
GRID*               2912               0-3.353552764E+00-3.080852373E+01+
*       -1.129289341E+01               0
GRID*               2913               0-2.450381177E+00-3.124346936E+01+
*       -1.129289341E+01               0
GRID*               2914               0-1.492471388E+00-3.153894412E+01+
*       -1.129289341E+01               0
GRID*               2915               0-5.012226229E-01-3.168835101E+01+
*       -1.129289341E+01               0
GRID*               2916               05.0122263816E-01-3.168835101E+01+
*       -1.129289341E+01               0
GRID*               2917               01.4924714031E+00-3.153894411E+01+
*       -1.129289341E+01               0
GRID*               2918               02.4503811909E+00-3.124346935E+01+
*       -1.129289341E+01               0
GRID*               2919               03.3535527774E+00-3.080852373E+01+
*       -1.129289341E+01               0
GRID*               2920               04.1818125415E+00-3.024382713E+01+
*       -1.129289341E+01               0
GRID*               2921               04.9166560813E+00-2.956199014E+01+
*       -1.129289341E+01               0
GRID*               2922               05.5416712683E+00-2.877824753E+01+
*       -1.129289341E+01               0
GRID*               2923               06.0428928376E+00-2.791010383E+01+
*       -1.129289341E+01               0
GRID*               2924               06.4091285791E+00-2.697695436E+01+
*       -1.129289341E+01               0
GRID*               2925               06.6321921929E+00-2.599964214E+01+
*       -1.129289341E+01               0
GRID*               2926               06.6321921929E+00-2.599964214E+01+
*       -6.207106590E+00               0
GRID*               2927               06.4091285791E+00-2.697695436E+01+
*       -6.207106590E+00               0
GRID*               2928               06.0428928376E+00-2.791010383E+01+
*       -6.207106590E+00               0
GRID*               2929               05.5416712683E+00-2.877824753E+01+
*       -6.207106590E+00               0
GRID*               2930               04.9166560813E+00-2.956199014E+01+
*       -6.207106590E+00               0
GRID*               2931               04.1818125415E+00-3.024382713E+01+
*       -6.207106590E+00               0
GRID*               2932               03.3535527774E+00-3.080852373E+01+
*       -6.207106590E+00               0
GRID*               2933               02.4503811909E+00-3.124346935E+01+
*       -6.207106590E+00               0
GRID*               2934               01.4924714031E+00-3.153894411E+01+
*       -6.207106590E+00               0
GRID*               2935               05.0122263816E-01-3.168835101E+01+
*       -6.207106590E+00               0
GRID*               2936               0-5.012226229E-01-3.168835101E+01+
*       -6.207106590E+00               0
GRID*               2937               0-1.492471388E+00-3.153894412E+01+
*       -6.207106590E+00               0
GRID*               2938               0-2.450381177E+00-3.124346936E+01+
*       -6.207106590E+00               0
GRID*               2939               0-3.353552764E+00-3.080852373E+01+
*       -6.207106590E+00               0
GRID*               2940               0-4.181812530E+00-3.024382714E+01+
*       -6.207106590E+00               0
GRID*               2941               0-4.916656071E+00-2.956199015E+01+
*       -6.207106590E+00               0
GRID*               2942               0-5.541671260E+00-2.877824755E+01+
*       -6.207106590E+00               0
GRID*               2943               0-6.042892831E+00-2.791010384E+01+
*       -6.207106590E+00               0
GRID*               2944               0-6.409128575E+00-2.697695437E+01+
*       -6.207106590E+00               0
GRID*               2945               0-6.632192191E+00-2.599964216E+01+
*       -6.207106590E+00               0
GRID*               2946               0-6.707106590E+00-2.500000002E+01+
*       -6.207106590E+00               0
GRID*               2947               0-6.632191994E+00-2.400035790E+01+
*       -6.207106590E+00               0
GRID*               2948               0-6.409128562E+00-2.302304562E+01+
*       -6.207106590E+00               0
GRID*               2949               0-6.042892795E+00-2.208989617E+01+
*       -6.207106590E+00               0
GRID*               2950               0-5.541671851E+00-2.122175207E+01+
*       -6.207106590E+00               0
GRID*               2951               0-4.916656009E+00-2.043800992E+01+
*       -6.207106590E+00               0
GRID*               2952               0-4.181812074E+00-1.975617352E+01+
*       -6.207106590E+00               0
GRID*               2953               0-3.353552787E+00-1.919147621E+01+
*       -6.207106590E+00               0
GRID*               2954               0-2.450381258E+00-1.875653043E+01+
*       -6.207106590E+00               0
GRID*               2955               0-1.492471398E+00-1.846105591E+01+
*       -6.207106590E+00               0
GRID*               2956               0-5.012226382E-01-1.831164899E+01+
*       -6.207106590E+00               0
GRID*               2957               05.0122262292E-01-1.831164899E+01+
*       -6.207106590E+00               0
GRID*               2958               01.4924713833E+00-1.846105590E+01+
*       -6.207106590E+00               0
GRID*               2959               02.4503812437E+00-1.875653042E+01+
*       -6.207106590E+00               0
GRID*               2960               03.3535527740E+00-1.919147620E+01+
*       -6.207106590E+00               0
GRID*               2961               04.1818120616E+00-1.975617351E+01+
*       -6.207106590E+00               0
GRID*               2962               04.9166559984E+00-2.043800991E+01+
*       -6.207106590E+00               0
GRID*               2963               05.5416718428E+00-2.122175206E+01+
*       -6.207106590E+00               0
GRID*               2964               06.0428927886E+00-2.208989615E+01+
*       -6.207106590E+00               0
GRID*               2965               06.4091285573E+00-2.302304561E+01+
*       -6.207106590E+00               0
GRID*               2966               06.6321919918E+00-2.400035789E+01+
*       -6.207106590E+00               0
GRID*               2967               06.6321921929E+002.5999642144E+01+
*       -1.129289341E+01               0
GRID*               2968               06.4091285791E+002.6976954358E+01+
*       -1.129289341E+01               0
GRID*               2969               06.0428928376E+002.7910103828E+01+
*       -1.129289341E+01               0
GRID*               2970               05.5416712683E+002.8778247535E+01+
*       -1.129289341E+01               0
GRID*               2971               04.9166560813E+002.9561990142E+01+
*       -1.129289341E+01               0
GRID*               2972               04.1818125415E+003.0243827129E+01+
*       -1.129289341E+01               0
GRID*               2973               03.3535527774E+003.0808523725E+01+
*       -1.129289341E+01               0
GRID*               2974               02.4503811909E+003.1243469354E+01+
*       -1.129289341E+01               0
GRID*               2975               01.4924714031E+003.1538944112E+01+
*       -1.129289341E+01               0
GRID*               2976               05.0122263816E-013.1688351007E+01+
*       -1.129289341E+01               0
GRID*               2977               0-5.012226229E-013.1688351008E+01+
*       -1.129289341E+01               0
GRID*               2978               0-1.492471388E+003.1538944115E+01+
*       -1.129289341E+01               0
GRID*               2979               0-2.450381177E+003.1243469359E+01+
*       -1.129289341E+01               0
GRID*               2980               0-3.353552764E+003.0808523733E+01+
*       -1.129289341E+01               0
GRID*               2981               0-4.181812530E+003.0243827139E+01+
*       -1.129289341E+01               0
GRID*               2982               0-4.916656071E+002.9561990153E+01+
*       -1.129289341E+01               0
GRID*               2983               0-5.541671260E+002.8778247548E+01+
*       -1.129289341E+01               0
GRID*               2984               0-6.042892831E+002.7910103842E+01+
*       -1.129289341E+01               0
GRID*               2985               0-6.409128575E+002.6976954372E+01+
*       -1.129289341E+01               0
GRID*               2986               0-6.632192191E+002.5999642159E+01+
*       -1.129289341E+01               0
GRID*               2987               0-6.707106590E+002.5000000015E+01+
*       -1.129289341E+01               0
GRID*               2988               0-6.632191994E+002.4000357902E+01+
*       -1.129289341E+01               0
GRID*               2989               0-6.409128562E+002.3023045623E+01+
*       -1.129289341E+01               0
GRID*               2990               0-6.042892795E+002.2089896168E+01+
*       -1.129289341E+01               0
GRID*               2991               0-5.541671851E+002.1221752071E+01+
*       -1.129289341E+01               0
GRID*               2992               0-4.916656009E+002.0438009919E+01+
*       -1.129289341E+01               0
GRID*               2993               0-4.181812074E+001.9756173519E+01+
*       -1.129289341E+01               0
GRID*               2994               0-3.353552787E+001.9191476212E+01+
*       -1.129289341E+01               0
GRID*               2995               0-2.450381258E+001.8756530427E+01+
*       -1.129289341E+01               0
GRID*               2996               0-1.492471398E+001.8461055906E+01+
*       -1.129289341E+01               0
GRID*               2997               0-5.012226382E-011.8311648990E+01+
*       -1.129289341E+01               0
GRID*               2998               05.0122262292E-011.8311648989E+01+
*       -1.129289341E+01               0
GRID*               2999               01.4924713833E+001.8461055902E+01+
*       -1.129289341E+01               0
GRID*               3000               02.4503812437E+001.8756530421E+01+
*       -1.129289341E+01               0
GRID*               3001               03.3535527740E+001.9191476204E+01+
*       -1.129289341E+01               0
GRID*               3002               04.1818120616E+001.9756173510E+01+
*       -1.129289341E+01               0
GRID*               3003               04.9166559984E+002.0438009908E+01+
*       -1.129289341E+01               0
GRID*               3004               05.5416718428E+002.1221752059E+01+
*       -1.129289341E+01               0
GRID*               3005               06.0428927886E+002.2089896154E+01+
*       -1.129289341E+01               0
GRID*               3006               06.4091285573E+002.3023045608E+01+
*       -1.129289341E+01               0
GRID*               3007               06.6321919918E+002.4000357887E+01+
*       -1.129289341E+01               0
GRID*               3008               06.6321919918E+002.4000357887E+01+
*       -6.207106590E+00               0
GRID*               3009               06.4091285573E+002.3023045608E+01+
*       -6.207106590E+00               0
GRID*               3010               06.0428927886E+002.2089896154E+01+
*       -6.207106590E+00               0
GRID*               3011               05.5416718428E+002.1221752059E+01+
*       -6.207106590E+00               0
GRID*               3012               04.9166559984E+002.0438009908E+01+
*       -6.207106590E+00               0
GRID*               3013               04.1818120616E+001.9756173510E+01+
*       -6.207106590E+00               0
GRID*               3014               03.3535527740E+001.9191476204E+01+
*       -6.207106590E+00               0
GRID*               3015               02.4503812437E+001.8756530421E+01+
*       -6.207106590E+00               0
GRID*               3016               01.4924713833E+001.8461055902E+01+
*       -6.207106590E+00               0
GRID*               3017               05.0122262292E-011.8311648989E+01+
*       -6.207106590E+00               0
GRID*               3018               0-5.012226382E-011.8311648990E+01+
*       -6.207106590E+00               0
GRID*               3019               0-1.492471398E+001.8461055906E+01+
*       -6.207106590E+00               0
GRID*               3020               0-2.450381258E+001.8756530427E+01+
*       -6.207106590E+00               0
GRID*               3021               0-3.353552787E+001.9191476212E+01+
*       -6.207106590E+00               0
GRID*               3022               0-4.181812074E+001.9756173519E+01+
*       -6.207106590E+00               0
GRID*               3023               0-4.916656009E+002.0438009919E+01+
*       -6.207106590E+00               0
GRID*               3024               0-5.541671851E+002.1221752071E+01+
*       -6.207106590E+00               0
GRID*               3025               0-6.042892795E+002.2089896168E+01+
*       -6.207106590E+00               0
GRID*               3026               0-6.409128562E+002.3023045623E+01+
*       -6.207106590E+00               0
GRID*               3027               0-6.632191994E+002.4000357902E+01+
*       -6.207106590E+00               0
GRID*               3028               0-6.707106590E+002.5000000015E+01+
*       -6.207106590E+00               0
GRID*               3029               0-6.632192191E+002.5999642159E+01+
*       -6.207106590E+00               0
GRID*               3030               0-6.409128575E+002.6976954372E+01+
*       -6.207106590E+00               0
GRID*               3031               0-6.042892831E+002.7910103842E+01+
*       -6.207106590E+00               0
GRID*               3032               0-5.541671260E+002.8778247548E+01+
*       -6.207106590E+00               0
GRID*               3033               0-4.916656071E+002.9561990153E+01+
*       -6.207106590E+00               0
GRID*               3034               0-4.181812530E+003.0243827139E+01+
*       -6.207106590E+00               0
GRID*               3035               0-3.353552764E+003.0808523733E+01+
*       -6.207106590E+00               0
GRID*               3036               0-2.450381177E+003.1243469359E+01+
*       -6.207106590E+00               0
GRID*               3037               0-1.492471388E+003.1538944115E+01+
*       -6.207106590E+00               0
GRID*               3038               0-5.012226229E-013.1688351008E+01+
*       -6.207106590E+00               0
GRID*               3039               05.0122263816E-013.1688351007E+01+
*       -6.207106590E+00               0
GRID*               3040               01.4924714031E+003.1538944112E+01+
*       -6.207106590E+00               0
GRID*               3041               02.4503811909E+003.1243469354E+01+
*       -6.207106590E+00               0
GRID*               3042               03.3535527774E+003.0808523725E+01+
*       -6.207106590E+00               0
GRID*               3043               04.1818125415E+003.0243827129E+01+
*       -6.207106590E+00               0
GRID*               3044               04.9166560813E+002.9561990142E+01+
*       -6.207106590E+00               0
GRID*               3045               05.5416712683E+002.8778247535E+01+
*       -6.207106590E+00               0
GRID*               3046               06.0428928376E+002.7910103828E+01+
*       -6.207106590E+00               0
GRID*               3047               06.4091285791E+002.6976954358E+01+
*       -6.207106590E+00               0
GRID*               3048               06.6321921929E+002.5999642144E+01+
*       -6.207106590E+00               0
GRID*               3049               04.6190661747E+00-2.308578540E+01+
*       -1.300000000E+01               0
GRID*               3050               03.5354642021E+00-2.146439762E+01+
*       -1.300000000E+01               0
GRID*               3051               01.9139881685E+00-2.038083821E+01+
*       -1.300000000E+01               0
GRID*               3052               04.3566781884E-05-2.000001312E+01+
*       -1.300000000E+01               0
GRID*               3053               0-1.913962106E+00-2.038083727E+01+
*       -1.300000000E+01               0
GRID*               3054               0-3.535435035E+00-2.146436885E+01+
*       -1.300000000E+01               0
GRID*               3055               0-4.619115055E+00-2.308591432E+01+
*       -1.300000000E+01               0
GRID*               3056               0-4.999978027E+00-2.499988546E+01+
*       -1.300000000E+01               0
GRID*               3057               0-4.619202361E+00-2.691387539E+01+
*       -1.300000000E+01               0
GRID*               3058               0-3.535615101E+00-2.853545172E+01+
*       -1.300000000E+01               0
GRID*               3059               0-1.914170081E+00-2.961907655E+01+
*       -1.300000000E+01               0
GRID*               3060               0-1.239281047E-04-2.999998689E+01+
*       -1.300000000E+01               0
GRID*               3061               01.9139122112E+00-2.961919196E+01+
*       -1.300000000E+01               0
GRID*               3062               03.5354654356E+00-2.853560114E+01+
*       -1.300000000E+01               0
GRID*               3063               04.6190661747E+00-2.691421460E+01+
*       -1.300000000E+01               0
GRID*               3064               04.6190661747E+00-2.691421460E+01+
*       -4.500000000E+00               0
GRID*               3065               03.5354654356E+00-2.853560114E+01+
*       -4.500000000E+00               0
GRID*               3066               01.9139122112E+00-2.961919196E+01+
*       -4.500000000E+00               0
GRID*               3067               0-1.239281047E-04-2.999998689E+01+
*       -4.500000000E+00               0
GRID*               3068               0-1.914170081E+00-2.961907655E+01+
*       -4.500000000E+00               0
GRID*               3069               0-3.535615101E+00-2.853545172E+01+
*       -4.500000000E+00               0
GRID*               3070               0-4.619202361E+00-2.691387539E+01+
*       -4.500000000E+00               0
GRID*               3071               0-4.999978027E+00-2.499988546E+01+
*       -4.500000000E+00               0
GRID*               3072               0-4.619115055E+00-2.308591432E+01+
*       -4.500000000E+00               0
GRID*               3073               0-3.535435035E+00-2.146436885E+01+
*       -4.500000000E+00               0
GRID*               3074               0-1.913962106E+00-2.038083727E+01+
*       -4.500000000E+00               0
GRID*               3075               04.3566781887E-05-2.000001312E+01+
*       -4.500000000E+00               0
GRID*               3076               01.9139881685E+00-2.038083821E+01+
*       -4.500000000E+00               0
GRID*               3077               03.5354642021E+00-2.146439762E+01+
*       -4.500000000E+00               0
GRID*               3078               04.6190661747E+00-2.308578540E+01+
*       -4.500000000E+00               0
GRID*               3079               04.6190661747E+00-2.308578540E+01+
*       4.5000000000E+00               0
GRID*               3080               03.5354642021E+00-2.146439762E+01+
*       4.5000000000E+00               0
GRID*               3081               01.9139881685E+00-2.038083821E+01+
*       4.5000000000E+00               0
GRID*               3082               04.3566781884E-05-2.000001312E+01+
*       4.5000000000E+00               0
GRID*               3083               0-1.913962106E+00-2.038083727E+01+
*       4.5000000000E+00               0
GRID*               3084               0-3.535435035E+00-2.146436885E+01+
*       4.5000000000E+00               0
GRID*               3085               0-4.619115055E+00-2.308591432E+01+
*       4.5000000000E+00               0
GRID*               3086               0-4.999978027E+00-2.499988546E+01+
*       4.5000000000E+00               0
GRID*               3087               0-4.619202361E+00-2.691387539E+01+
*       4.5000000000E+00               0
GRID*               3088               0-3.535615101E+00-2.853545172E+01+
*       4.5000000000E+00               0
GRID*               3089               0-1.914170081E+00-2.961907655E+01+
*       4.5000000000E+00               0
GRID*               3090               0-1.239281047E-04-2.999998689E+01+
*       4.5000000000E+00               0
GRID*               3091               01.9139122112E+00-2.961919196E+01+
*       4.5000000000E+00               0
GRID*               3092               03.5354654356E+00-2.853560114E+01+
*       4.5000000000E+00               0
GRID*               3093               04.6190661747E+00-2.691421460E+01+
*       4.5000000000E+00               0
GRID*               3094               04.6190661747E+00-2.691421460E+01+
*       1.3000000000E+01               0
GRID*               3095               03.5354654356E+00-2.853560114E+01+
*       1.3000000000E+01               0
GRID*               3096               01.9139122112E+00-2.961919196E+01+
*       1.3000000000E+01               0
GRID*               3097               0-1.239281047E-04-2.999998689E+01+
*       1.3000000000E+01               0
GRID*               3098               0-1.914170081E+00-2.961907655E+01+
*       1.3000000000E+01               0
GRID*               3099               0-3.535615101E+00-2.853545172E+01+
*       1.3000000000E+01               0
GRID*               3100               0-4.619202361E+00-2.691387539E+01+
*       1.3000000000E+01               0
GRID*               3101               0-4.999978027E+00-2.499988546E+01+
*       1.3000000000E+01               0
GRID*               3102               0-4.619115055E+00-2.308591432E+01+
*       1.3000000000E+01               0
GRID*               3103               0-3.535435035E+00-2.146436885E+01+
*       1.3000000000E+01               0
GRID*               3104               0-1.913962106E+00-2.038083727E+01+
*       1.3000000000E+01               0
GRID*               3105               04.3566781887E-05-2.000001312E+01+
*       1.3000000000E+01               0
GRID*               3106               01.9139881685E+00-2.038083821E+01+
*       1.3000000000E+01               0
GRID*               3107               03.5354642021E+00-2.146439762E+01+
*       1.3000000000E+01               0
GRID*               3108               04.6190661747E+00-2.308578540E+01+
*       1.3000000000E+01               0
GRID*               3109               0-5.000000000E+00-1.940983009E+01+
*       -8.376566358E+00               0
GRID*               3110               0-5.000000000E+00-1.940983009E+01+
*       -9.841447365E+00               0
GRID*               3111               0-5.000000000E+00-1.940983009E+01+
*       9.8752893183E+00               0
GRID*               3112               0-5.000000000E+00-1.940983009E+01+
*       8.7504091921E+00               0
GRID*               3113               0-5.000000000E+00-1.940983009E+01+
*       7.6252893667E+00               0
GRID*               3114               0-5.000000000E+001.9409830093E+01+
*       -9.865436497E+00               0
GRID*               3115               0-5.000000000E+001.9409830093E+01+
*       -8.736512456E+00               0
GRID*               3116               0-5.000000000E+001.9409830093E+01+
*       -7.615489103E+00               0
GRID*               3117               0-5.000000000E+001.9409830093E+01+
*       7.6343818427E+00               0
GRID*               3118               0-5.000000000E+001.9409830093E+01+
*       8.7632320389E+00               0
GRID*               3119               0-5.000000000E+001.9409830093E+01+
*       9.8843312114E+00               0
GRID*               3120               04.6190661747E+002.6914214604E+01+
*       -1.300000000E+01               0
GRID*               3121               03.5354654356E+002.8535601143E+01+
*       -1.300000000E+01               0
GRID*               3122               01.9139122112E+002.9619191958E+01+
*       -1.300000000E+01               0
GRID*               3123               0-1.239281047E-042.9999986894E+01+
*       -1.300000000E+01               0
GRID*               3124               0-1.914170081E+002.9619076552E+01+
*       -1.300000000E+01               0
GRID*               3125               0-3.535615101E+002.8535451724E+01+
*       -1.300000000E+01               0
GRID*               3126               0-4.619202361E+002.6913875389E+01+
*       -1.300000000E+01               0
GRID*               3127               0-4.999978027E+002.4999885464E+01+
*       -1.300000000E+01               0
GRID*               3128               0-4.619115055E+002.3085914316E+01+
*       -1.300000000E+01               0
GRID*               3129               0-3.535435035E+002.1464368852E+01+
*       -1.300000000E+01               0
GRID*               3130               0-1.913962106E+002.0380837273E+01+
*       -1.300000000E+01               0
GRID*               3131               04.3566781887E-052.0000013120E+01+
*       -1.300000000E+01               0
GRID*               3132               01.9139881685E+002.0380838207E+01+
*       -1.300000000E+01               0
GRID*               3133               03.5354642021E+002.1464397624E+01+
*       -1.300000000E+01               0
GRID*               3134               04.6190661747E+002.3085785396E+01+
*       -1.300000000E+01               0
GRID*               3135               04.6190661747E+002.3085785396E+01+
*       -4.500000000E+00               0
GRID*               3136               03.5354642021E+002.1464397624E+01+
*       -4.500000000E+00               0
GRID*               3137               01.9139881685E+002.0380838207E+01+
*       -4.500000000E+00               0
GRID*               3138               04.3566781884E-052.0000013120E+01+
*       -4.500000000E+00               0
GRID*               3139               0-1.913962106E+002.0380837273E+01+
*       -4.500000000E+00               0
GRID*               3140               0-3.535435035E+002.1464368852E+01+
*       -4.500000000E+00               0
GRID*               3141               0-4.619115055E+002.3085914316E+01+
*       -4.500000000E+00               0
GRID*               3142               0-4.999978027E+002.4999885464E+01+
*       -4.500000000E+00               0
GRID*               3143               0-4.619202361E+002.6913875389E+01+
*       -4.500000000E+00               0
GRID*               3144               0-3.535615101E+002.8535451724E+01+
*       -4.500000000E+00               0
GRID*               3145               0-1.914170081E+002.9619076552E+01+
*       -4.500000000E+00               0
GRID*               3146               0-1.239281047E-042.9999986894E+01+
*       -4.500000000E+00               0
GRID*               3147               01.9139122112E+002.9619191958E+01+
*       -4.500000000E+00               0
GRID*               3148               03.5354654356E+002.8535601143E+01+
*       -4.500000000E+00               0
GRID*               3149               04.6190661747E+002.6914214604E+01+
*       -4.500000000E+00               0
GRID*               3150               04.6190661747E+002.6914214604E+01+
*       4.5000000000E+00               0
GRID*               3151               03.5354654356E+002.8535601143E+01+
*       4.5000000000E+00               0
GRID*               3152               01.9139122112E+002.9619191958E+01+
*       4.5000000000E+00               0
GRID*               3153               0-1.239281047E-042.9999986894E+01+
*       4.5000000000E+00               0
GRID*               3154               0-1.914170081E+002.9619076552E+01+
*       4.5000000000E+00               0
GRID*               3155               0-3.535615101E+002.8535451724E+01+
*       4.5000000000E+00               0
GRID*               3156               0-4.619202361E+002.6913875389E+01+
*       4.5000000000E+00               0
GRID*               3157               0-4.999978027E+002.4999885464E+01+
*       4.5000000000E+00               0
GRID*               3158               0-4.619115055E+002.3085914316E+01+
*       4.5000000000E+00               0
GRID*               3159               0-3.535435035E+002.1464368852E+01+
*       4.5000000000E+00               0
GRID*               3160               0-1.913962106E+002.0380837273E+01+
*       4.5000000000E+00               0
GRID*               3161               04.3566781887E-052.0000013120E+01+
*       4.5000000000E+00               0
GRID*               3162               01.9139881685E+002.0380838207E+01+
*       4.5000000000E+00               0
GRID*               3163               03.5354642021E+002.1464397624E+01+
*       4.5000000000E+00               0
GRID*               3164               04.6190661747E+002.3085785396E+01+
*       4.5000000000E+00               0
GRID*               3165               04.6190661747E+002.3085785396E+01+
*       1.3000000000E+01               0
GRID*               3166               03.5354642021E+002.1464397624E+01+
*       1.3000000000E+01               0
GRID*               3167               01.9139881685E+002.0380838207E+01+
*       1.3000000000E+01               0
GRID*               3168               04.3566781884E-052.0000013120E+01+
*       1.3000000000E+01               0
GRID*               3169               0-1.913962106E+002.0380837273E+01+
*       1.3000000000E+01               0
GRID*               3170               0-3.535435035E+002.1464368852E+01+
*       1.3000000000E+01               0
GRID*               3171               0-4.619115055E+002.3085914316E+01+
*       1.3000000000E+01               0
GRID*               3172               0-4.999978027E+002.4999885464E+01+
*       1.3000000000E+01               0
GRID*               3173               0-4.619202361E+002.6913875389E+01+
*       1.3000000000E+01               0
GRID*               3174               0-3.535615101E+002.8535451724E+01+
*       1.3000000000E+01               0
GRID*               3175               0-1.914170081E+002.9619076552E+01+
*       1.3000000000E+01               0
GRID*               3176               0-1.239281047E-042.9999986894E+01+
*       1.3000000000E+01               0
GRID*               3177               01.9139122112E+002.9619191958E+01+
*       1.3000000000E+01               0
GRID*               3178               03.5354654356E+002.8535601143E+01+
*       1.3000000000E+01               0
GRID*               3179               04.6190661747E+002.6914214604E+01+
*       1.3000000000E+01               0
GRID*               3180               02.3095216325E+00-2.404288159E+01+
*       -1.300000000E+01               0
GRID*               3181               01.7679591674E+00-2.323242528E+01+
*       -1.300000000E+01               0
GRID*               3182               09.5678685544E-01-2.269036683E+01+
*       -1.300000000E+01               0
GRID*               3183               0-7.294005992E-04-2.250000011E+01+
*       -1.300000000E+01               0
GRID*               3184               0-9.567117845E-01-2.269030399E+01+
*       -1.300000000E+01               0
GRID*               3185               0-1.767498196E+00-2.323196433E+01+
*       -1.300000000E+01               0
GRID*               3186               0-2.309828411E+00-2.404365415E+01+
*       -1.300000000E+01               0
GRID*               3187               0-2.500000000E+00-2.500000007E+01+
*       -1.300000000E+01               0
GRID*               3188               0-2.309828360E+00-2.595634597E+01+
*       -1.300000000E+01               0
GRID*               3189               0-1.767498103E+00-2.676803576E+01+
*       -1.300000000E+01               0
GRID*               3190               0-9.567117290E-01-2.730969604E+01+
*       -1.300000000E+01               0
GRID*               3191               0-7.293405325E-04-2.749999989E+01+
*       -1.300000000E+01               0
GRID*               3192               09.5678698084E-01-2.730963332E+01+
*       -1.300000000E+01               0
GRID*               3193               01.7679591674E+00-2.676757472E+01+
*       -1.300000000E+01               0
GRID*               3194               02.3095216325E+00-2.595711841E+01+
*       -1.300000000E+01               0
GRID*               3195               02.3095216325E+00-2.404288159E+01+
*       -4.500000000E+00               0
GRID*               3196               01.7679591674E+00-2.323242528E+01+
*       -4.500000000E+00               0
GRID*               3197               09.5678685544E-01-2.269036683E+01+
*       -4.500000000E+00               0
GRID*               3198               0-7.294005992E-04-2.250000011E+01+
*       -4.500000000E+00               0
GRID*               3199               0-9.567117845E-01-2.269030399E+01+
*       -4.500000000E+00               0
GRID*               3200               0-1.767498196E+00-2.323196433E+01+
*       -4.500000000E+00               0
GRID*               3201               0-2.309828411E+00-2.404365415E+01+
*       -4.500000000E+00               0
GRID*               3202               0-2.500000000E+00-2.500000007E+01+
*       -4.500000000E+00               0
GRID*               3203               0-2.309828360E+00-2.595634597E+01+
*       -4.500000000E+00               0
GRID*               3204               0-1.767498103E+00-2.676803576E+01+
*       -4.500000000E+00               0
GRID*               3205               0-9.567117290E-01-2.730969604E+01+
*       -4.500000000E+00               0
GRID*               3206               0-7.293405325E-04-2.749999989E+01+
*       -4.500000000E+00               0
GRID*               3207               09.5678698084E-01-2.730963332E+01+
*       -4.500000000E+00               0
GRID*               3208               01.7679591674E+00-2.676757472E+01+
*       -4.500000000E+00               0
GRID*               3209               02.3095216325E+00-2.595711841E+01+
*       -4.500000000E+00               0
GRID*               3210               02.3095216325E+00-2.595711841E+01+
*       4.5000000000E+00               0
GRID*               3211               01.7679591674E+00-2.676757472E+01+
*       4.5000000000E+00               0
GRID*               3212               09.5678698084E-01-2.730963332E+01+
*       4.5000000000E+00               0
GRID*               3213               0-7.293405325E-04-2.749999989E+01+
*       4.5000000000E+00               0
GRID*               3214               0-9.567117290E-01-2.730969604E+01+
*       4.5000000000E+00               0
GRID*               3215               0-1.767498103E+00-2.676803576E+01+
*       4.5000000000E+00               0
GRID*               3216               0-2.309828360E+00-2.595634597E+01+
*       4.5000000000E+00               0
GRID*               3217               0-2.500000000E+00-2.500000007E+01+
*       4.5000000000E+00               0
GRID*               3218               0-2.309828411E+00-2.404365415E+01+
*       4.5000000000E+00               0
GRID*               3219               0-1.767498196E+00-2.323196433E+01+
*       4.5000000000E+00               0
GRID*               3220               0-9.567117845E-01-2.269030399E+01+
*       4.5000000000E+00               0
GRID*               3221               0-7.294005992E-04-2.250000011E+01+
*       4.5000000000E+00               0
GRID*               3222               09.5678685544E-01-2.269036683E+01+
*       4.5000000000E+00               0
GRID*               3223               01.7679591674E+00-2.323242528E+01+
*       4.5000000000E+00               0
GRID*               3224               02.3095216325E+00-2.404288159E+01+
*       4.5000000000E+00               0
GRID*               3225               02.3095216325E+00-2.595711841E+01+
*       1.3000000000E+01               0
GRID*               3226               01.7679591674E+00-2.676757472E+01+
*       1.3000000000E+01               0
GRID*               3227               09.5678698084E-01-2.730963332E+01+
*       1.3000000000E+01               0
GRID*               3228               0-7.293405325E-04-2.749999989E+01+
*       1.3000000000E+01               0
GRID*               3229               0-9.567117290E-01-2.730969604E+01+
*       1.3000000000E+01               0
GRID*               3230               0-1.767498103E+00-2.676803576E+01+
*       1.3000000000E+01               0
GRID*               3231               0-2.309828360E+00-2.595634597E+01+
*       1.3000000000E+01               0
GRID*               3232               0-2.500000000E+00-2.500000007E+01+
*       1.3000000000E+01               0
GRID*               3233               0-2.309828411E+00-2.404365415E+01+
*       1.3000000000E+01               0
GRID*               3234               0-1.767498196E+00-2.323196433E+01+
*       1.3000000000E+01               0
GRID*               3235               0-9.567117845E-01-2.269030399E+01+
*       1.3000000000E+01               0
GRID*               3236               0-7.294005992E-04-2.250000011E+01+
*       1.3000000000E+01               0
GRID*               3237               09.5678685544E-01-2.269036683E+01+
*       1.3000000000E+01               0
GRID*               3238               01.7679591674E+00-2.323242528E+01+
*       1.3000000000E+01               0
GRID*               3239               02.3095216325E+00-2.404288159E+01+
*       1.3000000000E+01               0
GRID*               3240               02.3095216325E+002.5957118413E+01+
*       -4.500000000E+00               0
GRID*               3241               01.7679591674E+002.6767574717E+01+
*       -4.500000000E+00               0
GRID*               3242               09.5678698084E-012.7309633316E+01+
*       -4.500000000E+00               0
GRID*               3243               0-7.293405325E-042.7499999894E+01+
*       -4.500000000E+00               0
GRID*               3244               0-9.567117290E-012.7309696037E+01+
*       -4.500000000E+00               0
GRID*               3245               0-1.767498103E+002.6768035761E+01+
*       -4.500000000E+00               0
GRID*               3246               0-2.309828360E+002.5956345972E+01+
*       -4.500000000E+00               0
GRID*               3247               0-2.500000000E+002.5000000069E+01+
*       -4.500000000E+00               0
GRID*               3248               0-2.309828411E+002.4043654151E+01+
*       -4.500000000E+00               0
GRID*               3249               0-1.767498196E+002.3231964332E+01+
*       -4.500000000E+00               0
GRID*               3250               0-9.567117845E-012.2690303986E+01+
*       -4.500000000E+00               0
GRID*               3251               0-7.294005992E-042.2500000106E+01+
*       -4.500000000E+00               0
GRID*               3252               09.5678685544E-012.2690366832E+01+
*       -4.500000000E+00               0
GRID*               3253               01.7679591674E+002.3232425283E+01+
*       -4.500000000E+00               0
GRID*               3254               02.3095216325E+002.4042881587E+01+
*       -4.500000000E+00               0
GRID*               3255               02.3095216325E+002.4042881587E+01+
*       4.5000000000E+00               0
GRID*               3256               01.7679591674E+002.3232425283E+01+
*       4.5000000000E+00               0
GRID*               3257               09.5678685544E-012.2690366832E+01+
*       4.5000000000E+00               0
GRID*               3258               0-7.294005992E-042.2500000106E+01+
*       4.5000000000E+00               0
GRID*               3259               0-9.567117845E-012.2690303986E+01+
*       4.5000000000E+00               0
GRID*               3260               0-1.767498196E+002.3231964332E+01+
*       4.5000000000E+00               0
GRID*               3261               0-2.309828411E+002.4043654151E+01+
*       4.5000000000E+00               0
GRID*               3262               0-2.500000000E+002.5000000069E+01+
*       4.5000000000E+00               0
GRID*               3263               0-2.309828360E+002.5956345972E+01+
*       4.5000000000E+00               0
GRID*               3264               0-1.767498103E+002.6768035761E+01+
*       4.5000000000E+00               0
GRID*               3265               0-9.567117290E-012.7309696037E+01+
*       4.5000000000E+00               0
GRID*               3266               0-7.293405325E-042.7499999894E+01+
*       4.5000000000E+00               0
GRID*               3267               09.5678698084E-012.7309633316E+01+
*       4.5000000000E+00               0
GRID*               3268               01.7679591674E+002.6767574717E+01+
*       4.5000000000E+00               0
GRID*               3269               02.3095216325E+002.5957118413E+01+
*       4.5000000000E+00               0
GRID*               3270               05.8172515878E+00-2.026613905E+01+
*       -1.100000000E+01               0
GRID*               3271               06.6413436192E+00-2.151539764E+01+
*       -1.100000000E+01               0
GRID*               3272               07.2818035092E+00-2.320409377E+01+
*       -1.100000000E+01               0
GRID*               3273               07.4987806735E+00-2.513374753E+01+
*       -1.100000000E+01               0
GRID*               3274               07.2131219924E+00-2.705443514E+01+
*       -1.100000000E+01               0
GRID*               3275               06.4439287891E+00-2.883740646E+01+
*       -1.100000000E+01               0
GRID*               3276               05.2427535403E+00-3.036312608E+01+
*       -1.100000000E+01               0
GRID*               3277               03.6901630520E+00-3.152936147E+01+
*       -1.100000000E+01               0
GRID*               3278               01.8901951935E+00-3.225789468E+01+
*       -1.100000000E+01               0
GRID*               3279               0-3.648123911E-02-3.249988587E+01+
*       -1.100000000E+01               0
GRID*               3280               0-1.960713002E+00-3.223916680E+01+
*       -1.100000000E+01               0
GRID*               3281               0-3.753505316E+00-3.149315023E+01+
*       -1.100000000E+01               0
GRID*               3282               0-5.294679868E+00-3.031187006E+01+
*       -1.100000000E+01               0
GRID*               3283               0-6.480957888E+00-2.877453881E+01+
*       -1.100000000E+01               0
GRID*               3284               0-7.232762616E+00-2.698416605E+01+
*       -1.100000000E+01               0
GRID*               3285               0-7.499728522E+00-2.506079122E+01+
*       -1.100000000E+01               0
GRID*               3286               0-7.263990602E+00-2.313333926E+01+
*       -1.100000000E+01               0
GRID*               3287               0-6.615565032E+00-2.146670797E+01+
*       -1.100000000E+01               0
GRID*               3288               0-5.802293107E+00-2.024781839E+01+
*       -1.100000000E+01               0
GRID*               3289               05.8156423060E+00-2.026416238E+01+
*       -6.500000000E+00               0
GRID*               3290               06.6399531628E+00-2.151274918E+01+
*       -6.500000000E+00               0
GRID*               3291               07.2850301447E+00-2.321723023E+01+
*       -6.500000000E+00               0
GRID*               3292               07.4978280566E+00-2.517935390E+01+
*       -6.500000000E+00               0
GRID*               3293               07.1914538928E+00-2.712905821E+01+
*       -6.500000000E+00               0
GRID*               3294               06.3870579155E+00-2.893132357E+01+
*       -6.500000000E+00               0
GRID*               3295               05.1403627346E+00-3.046134411E+01+
*       -6.500000000E+00               0
GRID*               3296               03.5377290339E+00-3.161320271E+01+
*       -6.500000000E+00               0
GRID*               3297               01.6900927313E+00-3.230707140E+01+
*       -6.500000000E+00               0
GRID*               3298               0-2.745730212E-01-3.249495398E+01+
*       -6.500000000E+00               0
GRID*               3299               0-2.220228696E+00-3.216383822E+01+
*       -6.500000000E+00               0
GRID*               3300               0-4.012123157E+00-3.133659749E+01+
*       -6.500000000E+00               0
GRID*               3301               0-5.526203576E+00-3.007059102E+01+
*       -6.500000000E+00               0
GRID*               3302               0-6.657597397E+00-2.845344500E+01+
*       -6.500000000E+00               0
GRID*               3303               0-7.327941483E+00-2.659714472E+01+
*       -6.500000000E+00               0
GRID*               3304               0-7.490876398E+00-2.463025260E+01+
*       -6.500000000E+00               0
GRID*               3305               0-7.135045220E+00-2.268896497E+01+
*       -6.500000000E+00               0
GRID*               3306               0-6.285128895E+00-2.090771433E+01+
*       -6.500000000E+00               0
GRID*               3307               0-5.802291636E+00-2.024781660E+01+
*       6.5000000000E+00               0
GRID*               3308               0-6.615562002E+00-2.146670230E+01+
*       6.5000000000E+00               0
GRID*               3309               0-7.263987944E+00-2.313332892E+01+
*       6.5000000000E+00               0
GRID*               3310               0-7.499728634E+00-2.506077739E+01+
*       6.5000000000E+00               0
GRID*               3311               0-7.232767111E+00-2.698414966E+01+
*       6.5000000000E+00               0
GRID*               3312               0-6.480968030E+00-2.877452140E+01+
*       6.5000000000E+00               0
GRID*               3313               0-5.294696375E+00-3.031185361E+01+
*       6.5000000000E+00               0
GRID*               3314               0-3.753528225E+00-3.149313698E+01+
*       6.5000000000E+00               0
GRID*               3315               0-1.960741591E+00-3.223915906E+01+
*       6.5000000000E+00               0
GRID*               3316               0-3.651401302E-02-3.249988571E+01+
*       6.5000000000E+00               0
GRID*               3317               01.8901604226E+00-3.225790373E+01+
*       6.5000000000E+00               0
GRID*               3318               03.6901290253E+00-3.152938070E+01+
*       6.5000000000E+00               0
GRID*               3319               05.2427233332E+00-3.036315560E+01+
*       6.5000000000E+00               0
GRID*               3320               06.4439055588E+00-2.883744547E+01+
*       6.5000000000E+00               0
GRID*               3321               07.2131086948E+00-2.705448184E+01+
*       6.5000000000E+00               0
GRID*               3322               07.4987797504E+00-2.513379923E+01+
*       6.5000000000E+00               0
GRID*               3323               07.2818166446E+00-2.320414704E+01+
*       6.5000000000E+00               0
GRID*               3324               06.6413636156E+00-2.151543575E+01+
*       6.5000000000E+00               0
GRID*               3325               05.8172635114E+00-2.026615370E+01+
*       6.5000000000E+00               0
GRID*               3326               0-5.803446508E+00-2.024922685E+01+
*       1.1000000000E+01               0
GRID*               3327               0-6.617743692E+00-2.147078966E+01+
*       1.1000000000E+01               0
GRID*               3328               0-7.266040959E+00-2.314133731E+01+
*       1.1000000000E+01               0
GRID*               3329               0-7.499620096E+00-2.507291727E+01+
*       1.1000000000E+01               0
GRID*               3330               0-7.228515110E+00-2.699958816E+01+
*       1.1000000000E+01               0
GRID*               3331               0-6.470936343E+00-2.879169203E+01+
*       1.1000000000E+01               0
GRID*               3332               0-5.277842006E+00-3.032859985E+01+
*       1.1000000000E+01               0
GRID*               3333               0-3.729580863E+00-3.150692343E+01+
*       1.1000000000E+01               0
GRID*               3334               0-1.930314395E+00-3.224733009E+01+
*       1.1000000000E+01               0
GRID*               3335               0-1.135816635E-03-3.249997437E+01+
*       1.1000000000E+01               0
GRID*               3336               01.9281191761E+00-3.224791430E+01+
*       1.1000000000E+01               0
GRID*               3337               03.7276099131E+00-3.150805288E+01+
*       1.1000000000E+01               0
GRID*               3338               05.2762277866E+00-3.033019817E+01+
*       1.1000000000E+01               0
GRID*               3339               06.4697875163E+00-2.879365175E+01+
*       1.1000000000E+01               0
GRID*               3340               07.2279092592E+00-2.700177751E+01+
*       1.1000000000E+01               0
GRID*               3341               07.4995976074E+00-2.507518879E+01+
*       1.1000000000E+01               0
GRID*               3342               07.2666035180E+00-2.314353818E+01+
*       1.1000000000E+01               0
GRID*               3343               06.6185477407E+00-2.147229757E+01+
*       1.1000000000E+01               0
GRID*               3344               05.8039074679E+00-2.024978994E+01+
*       1.1000000000E+01               0
GRID*               3345               0-5.817521253E+002.0266470409E+01+
*       -1.100000000E+01               0
GRID*               3346               0-6.641798117E+002.1516263901E+01+
*       -1.100000000E+01               0
GRID*               3347               0-7.282102358E+002.3205306164E+01+
*       -1.100000000E+01               0
GRID*               3348               0-7.498759628E+002.5134921369E+01+
*       -1.100000000E+01               0
GRID*               3349               0-7.212820832E+002.7055492455E+01+
*       -1.100000000E+01               0
GRID*               3350               0-6.443404387E+002.8838286817E+01+
*       -1.100000000E+01               0
GRID*               3351               0-5.242074129E+003.0363790149E+01+
*       -1.100000000E+01               0
GRID*               3352               0-3.689400955E+003.1529792173E+01+
*       -1.100000000E+01               0
GRID*               3353               0-1.889420293E+003.2258096396E+01+
*       -1.100000000E+01               0
GRID*               3354               03.7207298133E-023.2499882306E+01+
*       -1.100000000E+01               0
GRID*               3355               01.9613417549E+003.2238996505E+01+
*       -1.100000000E+01               0
GRID*               3356               03.7540046087E+003.1492861538E+01+
*       -1.100000000E+01               0
GRID*               3357               05.2950354666E+003.0311515603E+01+
*       -1.100000000E+01               0
GRID*               3358               06.4811730042E+002.8774169467E+01+
*       -1.100000000E+01               0
GRID*               3359               07.2328559149E+002.6983825848E+01+
*       -1.100000000E+01               0
GRID*               3360               07.4997307786E+002.5060513127E+01+
*       -1.100000000E+01               0
GRID*               3361               07.2639399701E+002.3133142219E+01+
*       -1.100000000E+01               0
GRID*               3362               06.6155073556E+002.1466599998E+01+
*       -1.100000000E+01               0
GRID*               3363               05.8022619410E+002.0247780344E+01+
*       -1.100000000E+01               0
GRID*               3364               0-5.815642528E+002.0264162653E+01+
*       -6.500000000E+00               0
GRID*               3365               0-6.639953537E+002.1512749891E+01+
*       -6.500000000E+00               0
GRID*               3366               0-7.285030389E+002.3217231225E+01+
*       -6.500000000E+00               0
GRID*               3367               0-7.497828034E+002.5179354864E+01+
*       -6.500000000E+00               0
GRID*               3368               0-7.191453638E+002.7129059074E+01+
*       -6.500000000E+00               0
GRID*               3369               0-6.387057478E+002.8931324277E+01+
*       -6.500000000E+00               0
GRID*               3370               0-5.140362173E+003.0461344642E+01+
*       -6.500000000E+00               0
GRID*               3371               0-3.537728411E+003.1613203041E+01+
*       -6.500000000E+00               0
GRID*               3372               0-1.690092105E+003.2307071546E+01+
*       -6.500000000E+00               0
GRID*               3373               02.7457359891E-013.2494953959E+01+
*       -6.500000000E+00               0
GRID*               3374               02.2202291871E+003.2163838068E+01+
*       -6.500000000E+00               0
GRID*               3375               04.0121235371E+003.1336597246E+01+
*       -6.500000000E+00               0
GRID*               3376               05.5262038366E+003.0070590739E+01+
*       -6.500000000E+00               0
GRID*               3377               06.6575975446E+002.8453444711E+01+
*       -6.500000000E+00               0
GRID*               3378               07.3279415379E+002.6597144464E+01+
*       -6.500000000E+00               0
GRID*               3379               07.4908763889E+002.4630252408E+01+
*       -6.500000000E+00               0
GRID*               3380               07.1350451801E+002.2688964852E+01+
*       -6.500000000E+00               0
GRID*               3381               06.2851288596E+002.0907714279E+01+
*       -6.500000000E+00               0
GRID*               3382               05.8022917133E+002.0247816691E+01+
*       6.5000000000E+00               0
GRID*               3383               06.6155621694E+002.1466702613E+01+
*       6.5000000000E+00               0
GRID*               3384               07.2639881666E+002.3133329783E+01+
*       6.5000000000E+00               0
GRID*               3385               07.4997286206E+002.5060779054E+01+
*       6.5000000000E+00               0
GRID*               3386               07.2327664645E+002.6984152019E+01+
*       6.5000000000E+00               0
GRID*               3387               06.4809664106E+002.8774524183E+01+
*       6.5000000000E+00               0
GRID*               3388               05.2946935475E+003.0311856426E+01+
*       6.5000000000E+00               0
GRID*               3389               03.7535240986E+003.1493139370E+01+
*       6.5000000000E+00               0
GRID*               3390               01.9607362426E+003.2239160503E+01+
*       6.5000000000E+00               0
GRID*               3391               03.6507697894E-023.2499885738E+01+
*       6.5000000000E+00               0
GRID*               3392               0-1.890167283E+003.2257901944E+01+
*       6.5000000000E+00               0
GRID*               3393               0-3.690135871E+003.1529376829E+01+
*       6.5000000000E+00               0
GRID*               3394               0-5.242729510E+003.0363149566E+01+
*       6.5000000000E+00               0
GRID*               3395               0-6.443910375E+002.8837437379E+01+
*       6.5000000000E+00               0
GRID*               3396               0-7.213111485E+002.7054472043E+01+
*       6.5000000000E+00               0
GRID*               3397               0-7.498779946E+002.5133788270E+01+
*       6.5000000000E+00               0
GRID*               3398               0-7.281813835E+002.3204135642E+01+
*       6.5000000000E+00               0
GRID*               3399               0-6.641359330E+002.1515427581E+01+
*       6.5000000000E+00               0
GRID*               3400               0-5.817260968E+002.0266150573E+01+
*       6.5000000000E+00               0
GRID*               3401               05.0000000000E+00-1.940983009E+01+
*       -9.865624730E+00               0
GRID*               3402               05.0000000000E+00-1.940983009E+01+
*       -8.736777206E+00               0
GRID*               3403               05.0000000000E+00-1.940983009E+01+
*       -7.615675290E+00               0
GRID*               3404               05.0000000000E+00-1.940983009E+01+
*       7.6343836383E+00               0
GRID*               3405               05.0000000000E+00-1.940983009E+01+
*       8.7632345646E+00               0
GRID*               3406               05.0000000000E+00-1.940983009E+01+
*       9.8843329877E+00               0
GRID*               3407               05.0000000000E+001.9409830093E+01+
*       -8.376566358E+00               0
GRID*               3408               05.0000000000E+001.9409830093E+01+
*       -9.841447365E+00               0
GRID*               3409               0-6.632192193E+00-2.599964214E+01+
*       6.2071065903E+00               0
GRID*               3410               0-6.409128579E+00-2.697695436E+01+
*       6.2071065903E+00               0
GRID*               3411               0-6.042892838E+00-2.791010383E+01+
*       6.2071065903E+00               0
GRID*               3412               0-5.541671268E+00-2.877824753E+01+
*       6.2071065903E+00               0
GRID*               3413               0-4.916656081E+00-2.956199014E+01+
*       6.2071065903E+00               0
GRID*               3414               0-4.181812542E+00-3.024382713E+01+
*       6.2071065903E+00               0
GRID*               3415               0-3.353552777E+00-3.080852373E+01+
*       6.2071065903E+00               0
GRID*               3416               0-2.450381191E+00-3.124346935E+01+
*       6.2071065903E+00               0
GRID*               3417               0-1.492471403E+00-3.153894411E+01+
*       6.2071065903E+00               0
GRID*               3418               0-5.012226382E-01-3.168835101E+01+
*       6.2071065903E+00               0
GRID*               3419               05.0122262293E-01-3.168835101E+01+
*       6.2071065903E+00               0
GRID*               3420               01.4924713882E+00-3.153894412E+01+
*       6.2071065903E+00               0
GRID*               3421               02.4503811767E+00-3.124346936E+01+
*       6.2071065903E+00               0
GRID*               3422               03.3535527642E+00-3.080852373E+01+
*       6.2071065903E+00               0
GRID*               3423               04.1818125296E+00-3.024382714E+01+
*       6.2071065903E+00               0
GRID*               3424               04.9166560710E+00-2.956199015E+01+
*       6.2071065903E+00               0
GRID*               3425               05.5416712597E+00-2.877824755E+01+
*       6.2071065903E+00               0
GRID*               3426               06.0428928309E+00-2.791010384E+01+
*       6.2071065903E+00               0
GRID*               3427               06.4091285746E+00-2.697695437E+01+
*       6.2071065903E+00               0
GRID*               3428               06.6321921906E+00-2.599964216E+01+
*       6.2071065903E+00               0
GRID*               3429               06.7071065903E+00-2.500000002E+01+
*       6.2071065903E+00               0
GRID*               3430               06.6321919941E+00-2.400035790E+01+
*       6.2071065903E+00               0
GRID*               3431               06.4091285618E+00-2.302304562E+01+
*       6.2071065903E+00               0
GRID*               3432               06.0428927952E+00-2.208989617E+01+
*       6.2071065903E+00               0
GRID*               3433               05.5416718514E+00-2.122175207E+01+
*       6.2071065903E+00               0
GRID*               3434               04.9166560088E+00-2.043800992E+01+
*       6.2071065903E+00               0
GRID*               3435               04.1818120735E+00-1.975617352E+01+
*       6.2071065903E+00               0
GRID*               3436               03.3535527873E+00-1.919147621E+01+
*       6.2071065903E+00               0
GRID*               3437               02.4503812579E+00-1.875653043E+01+
*       6.2071065903E+00               0
GRID*               3438               01.4924713982E+00-1.846105591E+01+
*       6.2071065903E+00               0
GRID*               3439               05.0122263815E-01-1.831164899E+01+
*       6.2071065903E+00               0
GRID*               3440               0-5.012226229E-01-1.831164899E+01+
*       6.2071065903E+00               0
GRID*               3441               0-1.492471383E+00-1.846105590E+01+
*       6.2071065903E+00               0
GRID*               3442               0-2.450381244E+00-1.875653042E+01+
*       6.2071065903E+00               0
GRID*               3443               0-3.353552774E+00-1.919147620E+01+
*       6.2071065903E+00               0
GRID*               3444               0-4.181812062E+00-1.975617351E+01+
*       6.2071065903E+00               0
GRID*               3445               0-4.916655998E+00-2.043800991E+01+
*       6.2071065903E+00               0
GRID*               3446               0-5.541671843E+00-2.122175206E+01+
*       6.2071065903E+00               0
GRID*               3447               0-6.042892789E+00-2.208989615E+01+
*       6.2071065903E+00               0
GRID*               3448               0-6.409128557E+00-2.302304561E+01+
*       6.2071065903E+00               0
GRID*               3449               0-6.632191992E+00-2.400035789E+01+
*       6.2071065903E+00               0
GRID*               3450               0-6.632191992E+00-2.400035789E+01+
*       1.1292893410E+01               0
GRID*               3451               0-6.409128557E+00-2.302304561E+01+
*       1.1292893410E+01               0
GRID*               3452               0-6.042892789E+00-2.208989615E+01+
*       1.1292893410E+01               0
GRID*               3453               0-5.541671843E+00-2.122175206E+01+
*       1.1292893410E+01               0
GRID*               3454               0-4.916655998E+00-2.043800991E+01+
*       1.1292893410E+01               0
GRID*               3455               0-4.181812062E+00-1.975617351E+01+
*       1.1292893410E+01               0
GRID*               3456               0-3.353552774E+00-1.919147620E+01+
*       1.1292893410E+01               0
GRID*               3457               0-2.450381244E+00-1.875653042E+01+
*       1.1292893410E+01               0
GRID*               3458               0-1.492471383E+00-1.846105590E+01+
*       1.1292893410E+01               0
GRID*               3459               0-5.012226229E-01-1.831164899E+01+
*       1.1292893410E+01               0
GRID*               3460               05.0122263815E-01-1.831164899E+01+
*       1.1292893410E+01               0
GRID*               3461               01.4924713982E+00-1.846105591E+01+
*       1.1292893410E+01               0
GRID*               3462               02.4503812579E+00-1.875653043E+01+
*       1.1292893410E+01               0
GRID*               3463               03.3535527873E+00-1.919147621E+01+
*       1.1292893410E+01               0
GRID*               3464               04.1818120735E+00-1.975617352E+01+
*       1.1292893410E+01               0
GRID*               3465               04.9166560088E+00-2.043800992E+01+
*       1.1292893410E+01               0
GRID*               3466               05.5416718514E+00-2.122175207E+01+
*       1.1292893410E+01               0
GRID*               3467               06.0428927952E+00-2.208989617E+01+
*       1.1292893410E+01               0
GRID*               3468               06.4091285618E+00-2.302304562E+01+
*       1.1292893410E+01               0
GRID*               3469               06.6321919941E+00-2.400035790E+01+
*       1.1292893410E+01               0
GRID*               3470               06.7071065903E+00-2.500000002E+01+
*       1.1292893410E+01               0
GRID*               3471               06.6321921906E+00-2.599964216E+01+
*       1.1292893410E+01               0
GRID*               3472               06.4091285746E+00-2.697695437E+01+
*       1.1292893410E+01               0
GRID*               3473               06.0428928309E+00-2.791010384E+01+
*       1.1292893410E+01               0
GRID*               3474               05.5416712597E+00-2.877824755E+01+
*       1.1292893410E+01               0
GRID*               3475               04.9166560710E+00-2.956199015E+01+
*       1.1292893410E+01               0
GRID*               3476               04.1818125296E+00-3.024382714E+01+
*       1.1292893410E+01               0
GRID*               3477               03.3535527642E+00-3.080852373E+01+
*       1.1292893410E+01               0
GRID*               3478               02.4503811767E+00-3.124346936E+01+
*       1.1292893410E+01               0
GRID*               3479               01.4924713882E+00-3.153894412E+01+
*       1.1292893410E+01               0
GRID*               3480               05.0122262293E-01-3.168835101E+01+
*       1.1292893410E+01               0
GRID*               3481               0-5.012226382E-01-3.168835101E+01+
*       1.1292893410E+01               0
GRID*               3482               0-1.492471403E+00-3.153894411E+01+
*       1.1292893410E+01               0
GRID*               3483               0-2.450381191E+00-3.124346935E+01+
*       1.1292893410E+01               0
GRID*               3484               0-3.353552777E+00-3.080852373E+01+
*       1.1292893410E+01               0
GRID*               3485               0-4.181812542E+00-3.024382713E+01+
*       1.1292893410E+01               0
GRID*               3486               0-4.916656081E+00-2.956199014E+01+
*       1.1292893410E+01               0
GRID*               3487               0-5.541671268E+00-2.877824753E+01+
*       1.1292893410E+01               0
GRID*               3488               0-6.042892838E+00-2.791010383E+01+
*       1.1292893410E+01               0
GRID*               3489               0-6.409128579E+00-2.697695436E+01+
*       1.1292893410E+01               0
GRID*               3490               0-6.632192193E+00-2.599964214E+01+
*       1.1292893410E+01               0
GRID*               3491               0-6.632191992E+002.4000357887E+01+
*       6.2071065903E+00               0
GRID*               3492               0-6.409128557E+002.3023045608E+01+
*       6.2071065903E+00               0
GRID*               3493               0-6.042892789E+002.2089896154E+01+
*       6.2071065903E+00               0
GRID*               3494               0-5.541671843E+002.1221752059E+01+
*       6.2071065903E+00               0
GRID*               3495               0-4.916655998E+002.0438009908E+01+
*       6.2071065903E+00               0
GRID*               3496               0-4.181812062E+001.9756173510E+01+
*       6.2071065903E+00               0
GRID*               3497               0-3.353552774E+001.9191476204E+01+
*       6.2071065903E+00               0
GRID*               3498               0-2.450381244E+001.8756530421E+01+
*       6.2071065903E+00               0
GRID*               3499               0-1.492471383E+001.8461055902E+01+
*       6.2071065903E+00               0
GRID*               3500               0-5.012226229E-011.8311648989E+01+
*       6.2071065903E+00               0
GRID*               3501               05.0122263815E-011.8311648990E+01+
*       6.2071065903E+00               0
GRID*               3502               01.4924713982E+001.8461055906E+01+
*       6.2071065903E+00               0
GRID*               3503               02.4503812579E+001.8756530427E+01+
*       6.2071065903E+00               0
GRID*               3504               03.3535527873E+001.9191476212E+01+
*       6.2071065903E+00               0
GRID*               3505               04.1818120735E+001.9756173519E+01+
*       6.2071065903E+00               0
GRID*               3506               04.9166560088E+002.0438009919E+01+
*       6.2071065903E+00               0
GRID*               3507               05.5416718514E+002.1221752071E+01+
*       6.2071065903E+00               0
GRID*               3508               06.0428927952E+002.2089896168E+01+
*       6.2071065903E+00               0
GRID*               3509               06.4091285618E+002.3023045623E+01+
*       6.2071065903E+00               0
GRID*               3510               06.6321919941E+002.4000357902E+01+
*       6.2071065903E+00               0
GRID*               3511               06.7071065903E+002.5000000015E+01+
*       6.2071065903E+00               0
GRID*               3512               06.6321921906E+002.5999642159E+01+
*       6.2071065903E+00               0
GRID*               3513               06.4091285746E+002.6976954372E+01+
*       6.2071065903E+00               0
GRID*               3514               06.0428928309E+002.7910103842E+01+
*       6.2071065903E+00               0
GRID*               3515               05.5416712597E+002.8778247548E+01+
*       6.2071065903E+00               0
GRID*               3516               04.9166560710E+002.9561990153E+01+
*       6.2071065903E+00               0
GRID*               3517               04.1818125296E+003.0243827139E+01+
*       6.2071065903E+00               0
GRID*               3518               03.3535527642E+003.0808523733E+01+
*       6.2071065903E+00               0
GRID*               3519               02.4503811767E+003.1243469359E+01+
*       6.2071065903E+00               0
GRID*               3520               01.4924713882E+003.1538944115E+01+
*       6.2071065903E+00               0
GRID*               3521               05.0122262293E-013.1688351008E+01+
*       6.2071065903E+00               0
GRID*               3522               0-5.012226382E-013.1688351007E+01+
*       6.2071065903E+00               0
GRID*               3523               0-1.492471403E+003.1538944112E+01+
*       6.2071065903E+00               0
GRID*               3524               0-2.450381191E+003.1243469354E+01+
*       6.2071065903E+00               0
GRID*               3525               0-3.353552777E+003.0808523725E+01+
*       6.2071065903E+00               0
GRID*               3526               0-4.181812542E+003.0243827129E+01+
*       6.2071065903E+00               0
GRID*               3527               0-4.916656081E+002.9561990142E+01+
*       6.2071065903E+00               0
GRID*               3528               0-5.541671268E+002.8778247535E+01+
*       6.2071065903E+00               0
GRID*               3529               0-6.042892838E+002.7910103828E+01+
*       6.2071065903E+00               0
GRID*               3530               0-6.409128579E+002.6976954358E+01+
*       6.2071065903E+00               0
GRID*               3531               0-6.632192193E+002.5999642144E+01+
*       6.2071065903E+00               0
GRID*               3532               0-6.632192193E+002.5999642144E+01+
*       1.1292893410E+01               0
GRID*               3533               0-6.409128579E+002.6976954358E+01+
*       1.1292893410E+01               0
GRID*               3534               0-6.042892838E+002.7910103828E+01+
*       1.1292893410E+01               0
GRID*               3535               0-5.541671268E+002.8778247535E+01+
*       1.1292893410E+01               0
GRID*               3536               0-4.916656081E+002.9561990142E+01+
*       1.1292893410E+01               0
GRID*               3537               0-4.181812542E+003.0243827129E+01+
*       1.1292893410E+01               0
GRID*               3538               0-3.353552777E+003.0808523725E+01+
*       1.1292893410E+01               0
GRID*               3539               0-2.450381191E+003.1243469354E+01+
*       1.1292893410E+01               0
GRID*               3540               0-1.492471403E+003.1538944112E+01+
*       1.1292893410E+01               0
GRID*               3541               0-5.012226382E-013.1688351007E+01+
*       1.1292893410E+01               0
GRID*               3542               05.0122262293E-013.1688351008E+01+
*       1.1292893410E+01               0
GRID*               3543               01.4924713882E+003.1538944115E+01+
*       1.1292893410E+01               0
GRID*               3544               02.4503811767E+003.1243469359E+01+
*       1.1292893410E+01               0
GRID*               3545               03.3535527642E+003.0808523733E+01+
*       1.1292893410E+01               0
GRID*               3546               04.1818125296E+003.0243827139E+01+
*       1.1292893410E+01               0
GRID*               3547               04.9166560710E+002.9561990153E+01+
*       1.1292893410E+01               0
GRID*               3548               05.5416712597E+002.8778247548E+01+
*       1.1292893410E+01               0
GRID*               3549               06.0428928309E+002.7910103842E+01+
*       1.1292893410E+01               0
GRID*               3550               06.4091285746E+002.6976954372E+01+
*       1.1292893410E+01               0
GRID*               3551               06.6321921906E+002.5999642159E+01+
*       1.1292893410E+01               0
GRID*               3552               06.7071065903E+002.5000000015E+01+
*       1.1292893410E+01               0
GRID*               3553               06.6321919941E+002.4000357902E+01+
*       1.1292893410E+01               0
GRID*               3554               06.4091285618E+002.3023045623E+01+
*       1.1292893410E+01               0
GRID*               3555               06.0428927952E+002.2089896168E+01+
*       1.1292893410E+01               0
GRID*               3556               05.5416718514E+002.1221752071E+01+
*       1.1292893410E+01               0
GRID*               3557               04.9166560088E+002.0438009919E+01+
*       1.1292893410E+01               0
GRID*               3558               04.1818120735E+001.9756173519E+01+
*       1.1292893410E+01               0
GRID*               3559               03.3535527873E+001.9191476212E+01+
*       1.1292893410E+01               0
GRID*               3560               02.4503812579E+001.8756530427E+01+
*       1.1292893410E+01               0
GRID*               3561               01.4924713982E+001.8461055906E+01+
*       1.1292893410E+01               0
GRID*               3562               05.0122263815E-011.8311648990E+01+
*       1.1292893410E+01               0
GRID*               3563               0-5.012226229E-011.8311648989E+01+
*       1.1292893410E+01               0
GRID*               3564               0-1.492471383E+001.8461055902E+01+
*       1.1292893410E+01               0
GRID*               3565               0-2.450381244E+001.8756530421E+01+
*       1.1292893410E+01               0
GRID*               3566               0-3.353552774E+001.9191476204E+01+
*       1.1292893410E+01               0
GRID*               3567               0-4.181812062E+001.9756173510E+01+
*       1.1292893410E+01               0
GRID*               3568               0-4.916655998E+002.0438009908E+01+
*       1.1292893410E+01               0
GRID*               3569               0-5.541671843E+002.1221752059E+01+
*       1.1292893410E+01               0
GRID*               3570               0-6.042892789E+002.2089896154E+01+
*       1.1292893410E+01               0
GRID*               3571               0-6.409128557E+002.3023045608E+01+
*       1.1292893410E+01               0
GRID*               3572               0-6.632191992E+002.4000357887E+01+
*       1.1292893410E+01               0
GRID*               3573               02.5000000000E+00-2.500000000E+01+
*       5.5625000000E+00               0
GRID*               3574               02.5000000000E+00-2.500000000E+01+
*       6.6250000000E+00               0
GRID*               3575               02.5000000000E+00-2.500000000E+01+
*       7.6875000000E+00               0
GRID*               3576               02.5000000000E+00-2.500000000E+01+
*       8.7500000000E+00               0
GRID*               3577               02.5000000000E+00-2.500000000E+01+
*       9.8125000000E+00               0
GRID*               3578               02.5000000000E+00-2.500000000E+01+
*       1.0875000000E+01               0
GRID*               3579               02.5000000000E+00-2.500000000E+01+
*       1.1937500000E+01               0
GRID*               3580               02.5000000000E+002.5000000000E+01+
*       -3.500000000E+00               0
GRID*               3581               02.5000000000E+002.5000000000E+01+
*       -2.500000000E+00               0
GRID*               3582               02.5000000000E+002.5000000000E+01+
*       -1.500000000E+00               0
GRID*               3583               02.5000000000E+002.5000000000E+01+
*       -5.000000000E-01               0
GRID*               3584               02.5000000000E+002.5000000000E+01+
*       5.0000000000E-01               0
GRID*               3585               02.5000000000E+002.5000000000E+01+
*       1.5000000000E+00               0
GRID*               3586               02.5000000000E+002.5000000000E+01+
*       2.5000000000E+00               0
GRID*               3587               02.5000000000E+002.5000000000E+01+
*       3.5000000000E+00               0
GRID*               3588               02.5000000000E+00-2.500000000E+01+
*       -1.193750000E+01               0
GRID*               3589               02.5000000000E+00-2.500000000E+01+
*       -1.087500000E+01               0
GRID*               3590               02.5000000000E+00-2.500000000E+01+
*       -9.812500000E+00               0
GRID*               3591               02.5000000000E+00-2.500000000E+01+
*       -8.750000000E+00               0
GRID*               3592               02.5000000000E+00-2.500000000E+01+
*       -7.687500000E+00               0
GRID*               3593               02.5000000000E+00-2.500000000E+01+
*       -6.625000000E+00               0
GRID*               3594               02.5000000000E+00-2.500000000E+01+
*       -5.562500000E+00               0
GRID*               3595               04.1827368115E+001.8878016521E+01+
*       -1.100000000E+01               0
GRID*               3596               03.3221676586E+001.8371744547E+01+
*       -1.100000000E+01               0
GRID*               3597               02.4019544407E+001.7985647034E+01+
*       -1.100000000E+01               0
GRID*               3598               01.4381496534E+001.7726604211E+01+
*       -1.100000000E+01               0
GRID*               3599               04.4827038176E-011.7599350592E+01+
*       -1.100000000E+01               0
GRID*               3600               0-5.496012459E-011.7606186153E+01+
*       -1.100000000E+01               0
GRID*               3601               0-1.537615118E+001.7746979945E+01+
*       -1.100000000E+01               0
GRID*               3602               0-2.497810945E+001.8019205954E+01+
*       -1.100000000E+01               0
GRID*               3603               0-3.412675983E+001.8417888741E+01+
*       -1.100000000E+01               0
GRID*               3604               0-4.266631542E+001.8935299452E+01+
*       -1.100000000E+01               0
GRID*               3605               05.0000000000E+001.8370798453E+01+
*       -1.100000000E+01               0
GRID*               3606               05.0000000000E+001.7331694745E+01+
*       -1.100000000E+01               0
GRID*               3607               05.0000000000E+001.6292447388E+01+
*       -1.100000000E+01               0
GRID*               3608               05.0000000000E+001.5252985782E+01+
*       -1.100000000E+01               0
GRID*               3609               05.0000000000E+001.4213240779E+01+
*       -1.100000000E+01               0
GRID*               3610               05.0000000000E+001.3173145167E+01+
*       -1.100000000E+01               0
GRID*               3611               05.0000000000E+001.2132634125E+01+
*       -1.100000000E+01               0
GRID*               3612               05.0000000000E+001.1091645675E+01+
*       -1.100000000E+01               0
GRID*               3613               05.0000000000E+001.0050121113E+01+
*       -1.100000000E+01               0
GRID*               3614               05.0000000000E+009.0080054259E+00+
*       -1.100000000E+01               0
GRID*               3615               05.0000000000E+007.9652476787E+00+
*       -1.100000000E+01               0
GRID*               3616               05.0000000000E+006.9218013866E+00+
*       -1.100000000E+01               0
GRID*               3617               05.0000000000E+005.8776248532E+00+
*       -1.100000000E+01               0
GRID*               3618               05.0000000000E+004.8326814820E+00+
*       -1.100000000E+01               0
GRID*               3619               05.0000000000E+003.7869400557E+00+
*       -1.100000000E+01               0
GRID*               3620               05.0000000000E+002.7403749799E+00+
*       -1.100000000E+01               0
GRID*               3621               05.0000000000E+001.6929664913E+00+
*       -1.100000000E+01               0
GRID*               3622               05.0000000000E+006.4470082590E-01+
*       -1.100000000E+01               0
GRID*               3623               05.0000000000E+00-4.044296532E-01+
*       -1.100000000E+01               0
GRID*               3624               05.0000000000E+00-1.454426371E+00+
*       -1.100000000E+01               0
GRID*               3625               05.0000000000E+00-2.505284498E+00+
*       -1.100000000E+01               0
GRID*               3626               05.0000000000E+00-3.556992958E+00+
*       -1.100000000E+01               0
GRID*               3627               05.0000000000E+00-4.609534474E+00+
*       -1.100000000E+01               0
GRID*               3628               05.0000000000E+00-5.662885670E+00+
*       -1.100000000E+01               0
GRID*               3629               05.0000000000E+00-6.717017211E+00+
*       -1.100000000E+01               0
GRID*               3630               05.0000000000E+00-7.771893994E+00+
*       -1.100000000E+01               0
GRID*               3631               05.0000000000E+00-8.827475386E+00+
*       -1.100000000E+01               0
GRID*               3632               05.0000000000E+00-9.883715503E+00+
*       -1.100000000E+01               0
GRID*               3633               05.0000000000E+00-1.094056353E+01+
*       -1.100000000E+01               0
GRID*               3634               05.0000000000E+00-1.199796409E+01+
*       -1.100000000E+01               0
GRID*               3635               05.0000000000E+00-1.305585766E+01+
*       -1.100000000E+01               0
GRID*               3636               05.0000000000E+00-1.411418095E+01+
*       -1.100000000E+01               0
GRID*               3637               05.0000000000E+00-1.517286747E+01+
*       -1.100000000E+01               0
GRID*               3638               05.0000000000E+00-1.623184795E+01+
*       -1.100000000E+01               0
GRID*               3639               05.0000000000E+00-1.729105086E+01+
*       -1.100000000E+01               0
GRID*               3640               05.0000000000E+00-1.835040302E+01+
*       -1.100000000E+01               0
GRID*               3641               0-4.182890107E+00-1.887812003E+01+
*       -1.100000000E+01               0
GRID*               3642               0-3.322494963E+00-1.837190861E+01+
*       -1.100000000E+01               0
GRID*               3643               0-2.402472018E+00-1.798582429E+01+
*       -1.100000000E+01               0
GRID*               3644               0-1.438863736E+00-1.772674544E+01+
*       -1.100000000E+01               0
GRID*               3645               0-4.491779600E-01-1.759940563E+01+
*       -1.100000000E+01               0
GRID*               3646               05.4851391609E-01-1.760610540E+01+
*       -1.100000000E+01               0
GRID*               3647               01.5363716978E+00-1.774671645E+01+
*       -1.100000000E+01               0
GRID*               3648               02.4964433199E+00-1.801871676E+01+
*       -1.100000000E+01               0
GRID*               3649               03.4112252399E+00-1.841713673E+01+
*       -1.100000000E+01               0
GRID*               3650               04.2651387601E+00-1.893426708E+01+
*       -1.100000000E+01               0
GRID*               3651               0-5.000000000E+00-1.837100082E+01+
*       -1.100000000E+01               0
GRID*               3652               0-5.000000000E+00-1.733209805E+01+
*       -1.100000000E+01               0
GRID*               3653               0-5.000000000E+00-1.629304882E+01+
*       -1.100000000E+01               0
GRID*               3654               0-5.000000000E+00-1.525378113E+01+
*       -1.100000000E+01               0
GRID*               3655               0-5.000000000E+00-1.421422446E+01+
*       -1.100000000E+01               0
GRID*               3656               0-5.000000000E+00-1.317431029E+01+
*       -1.100000000E+01               0
GRID*               3657               0-5.000000000E+00-1.213397251E+01+
*       -1.100000000E+01               0
GRID*               3658               0-5.000000000E+00-1.109314791E+01+
*       -1.100000000E+01               0
GRID*               3659               0-5.000000000E+00-1.005177662E+01+
*       -1.100000000E+01               0
GRID*               3660               0-5.000000000E+00-9.009802529E+00+
*       -1.100000000E+01               0
GRID*               3661               0-5.000000000E+00-7.967173681E+00+
*       -1.100000000E+01               0
GRID*               3662               0-5.000000000E+00-6.923842654E+00+
*       -1.100000000E+01               0
GRID*               3663               0-5.000000000E+00-5.879766905E+00+
*       -1.100000000E+01               0
GRID*               3664               0-5.000000000E+00-4.834909090E+00+
*       -1.100000000E+01               0
GRID*               3665               0-5.000000000E+00-3.789237348E+00+
*       -1.100000000E+01               0
GRID*               3666               0-5.000000000E+00-2.742725550E+00+
*       -1.100000000E+01               0
GRID*               3667               0-5.000000000E+00-1.695353510E+00+
*       -1.100000000E+01               0
GRID*               3668               0-5.000000000E+00-6.471071618E-01+
*       -1.100000000E+01               0
GRID*               3669               0-5.000000000E+004.0202131255E-01+
*       -1.100000000E+01               0
GRID*               3670               0-5.000000000E+001.4520333957E+00+
*       -1.100000000E+01               0
GRID*               3671               0-5.000000000E+002.5029241913E+00+
*       -1.100000000E+01               0
GRID*               3672               0-5.000000000E+003.5546824278E+00+
*       -1.100000000E+01               0
GRID*               3673               0-5.000000000E+004.6072905090E+00+
*       -1.100000000E+01               0
GRID*               3674               0-5.000000000E+005.6607246125E+00+
*       -1.100000000E+01               0
GRID*               3675               0-5.000000000E+006.7149548356E+00+
*       -1.100000000E+01               0
GRID*               3676               0-5.000000000E+007.7699453885E+00+
*       -1.100000000E+01               0
GRID*               3677               0-5.000000000E+008.8256548348E+00+
*       -1.100000000E+01               0
GRID*               3678               0-5.000000000E+009.8820363769E+00+
*       -1.100000000E+01               0
GRID*               3679               0-5.000000000E+001.0939038186E+01+
*       -1.100000000E+01               0
GRID*               3680               0-5.000000000E+001.1996603773E+01+
*       -1.100000000E+01               0
GRID*               3681               0-5.000000000E+001.3054672398E+01+
*       -1.100000000E+01               0
GRID*               3682               0-5.000000000E+001.4113179521E+01+
*       -1.100000000E+01               0
GRID*               3683               0-5.000000000E+001.5172057277E+01+
*       -1.100000000E+01               0
GRID*               3684               0-5.000000000E+001.6231234983E+01+
*       -1.100000000E+01               0
GRID*               3685               0-5.000000000E+001.7290639677E+01+
*       -1.100000000E+01               0
GRID*               3686               0-5.000000000E+001.8350196666E+01+
*       -1.100000000E+01               0
GRID*               3687               03.9323600582E+001.8714535157E+01+
*       -6.500000000E+00               0
GRID*               3688               03.0886771730E+001.8259774560E+01+
*       -6.500000000E+00               0
GRID*               3689               02.1937215686E+001.7917761100E+01+
*       -6.500000000E+00               0
GRID*               3690               01.2621491735E+001.7694007050E+01+
*       -6.500000000E+00               0
GRID*               3691               03.0938258941E-011.7592244391E+01+
*       -6.500000000E+00               0
GRID*               3692               0-6.484019277E-011.7614195603E+01+
*       -6.500000000E+00               0
GRID*               3693               0-1.595420807E+001.7759475760E+01+
*       -6.500000000E+00               0
GRID*               3694               0-2.515871846E+001.8025694594E+01+
*       -6.500000000E+00               0
GRID*               3695               0-3.394212686E+001.8408348333E+01+
*       -6.500000000E+00               0
GRID*               3696               0-4.216531401E+001.8900927467E+01+
*       -6.500000000E+00               0
GRID*               3697               05.0000000000E+001.7431423598E+01+
*       -6.500000000E+00               0
GRID*               3698               05.0000000000E+001.5464869764E+01+
*       -6.500000000E+00               0
GRID*               3699               05.0000000000E+001.3521448363E+01+
*       -6.500000000E+00               0
GRID*               3700               05.0000000000E+001.1611357643E+01+
*       -6.500000000E+00               0
GRID*               3701               05.0000000000E+009.7433211485E+00+
*       -6.500000000E+00               0
GRID*               3702               05.0000000000E+007.9243392035E+00+
*       -6.500000000E+00               0
GRID*               3703               05.0000000000E+006.1595896759E+00+
*       -6.500000000E+00               0
GRID*               3704               05.0000000000E+004.4524615829E+00+
*       -6.500000000E+00               0
GRID*               3705               05.0000000000E+002.8046914508E+00+
*       -6.500000000E+00               0
GRID*               3706               05.0000000000E+001.2165670311E+00+
*       -6.500000000E+00               0
GRID*               3707               05.0000000000E+00-3.128353846E-01+
*       -6.500000000E+00               0
GRID*               3708               05.0000000000E+00-1.785407758E+00+
*       -6.500000000E+00               0
GRID*               3709               05.0000000000E+00-3.203781067E+00+
*       -6.500000000E+00               0
GRID*               3710               05.0000000000E+00-4.571122212E+00+
*       -6.500000000E+00               0
GRID*               3711               05.0000000000E+00-5.890962849E+00+
*       -6.500000000E+00               0
GRID*               3712               05.0000000000E+00-7.167061264E+00+
*       -6.500000000E+00               0
GRID*               3713               05.0000000000E+00-8.403295410E+00+
*       -6.500000000E+00               0
GRID*               3714               05.0000000000E+00-9.603583530E+00+
*       -6.500000000E+00               0
GRID*               3715               05.0000000000E+00-1.077182818E+01+
*       -6.500000000E+00               0
GRID*               3716               05.0000000000E+00-1.191187940E+01+
*       -6.500000000E+00               0
GRID*               3717               05.0000000000E+00-1.302751308E+01+
*       -6.500000000E+00               0
GRID*               3718               05.0000000000E+00-1.412242121E+01+
*       -6.500000000E+00               0
GRID*               3719               05.0000000000E+00-1.520021108E+01+
*       -6.500000000E+00               0
GRID*               3720               05.0000000000E+00-1.626441129E+01+
*       -6.500000000E+00               0
GRID*               3721               05.0000000000E+00-1.731848257E+01+
*       -6.500000000E+00               0
GRID*               3722               05.0000000000E+00-1.836583208E+01+
*       -6.500000000E+00               0
GRID*               3723               0-3.931372099E+00-1.871391720E+01+
*       -6.500000000E+00               0
GRID*               3724               0-3.087724170E+00-1.825933793E+01+
*       -6.500000000E+00               0
GRID*               3725               0-2.192831161E+00-1.791748536E+01+
*       -6.500000000E+00               0
GRID*               3726               0-1.261345634E+00-1.769386828E+01+
*       -6.500000000E+00               0
GRID*               3727               0-3.086841155E-01-1.759221525E+01+
*       -6.500000000E+00               0
GRID*               3728               06.4898258731E-01-1.761424661E+01+
*       -6.500000000E+00               0
GRID*               3729               01.5958762273E+00-1.775957613E+01+
*       -6.500000000E+00               0
GRID*               3730               02.5162011470E+00-1.802581339E+01+
*       -6.500000000E+00               0
GRID*               3731               03.3944204870E+00-1.840845534E+01+
*       -6.500000000E+00               0
GRID*               3732               04.2166283454E+00-1.890099348E+01+
*       -6.500000000E+00               0
GRID*               3733               0-5.000000000E+00-1.743142391E+01+
*       -6.500000000E+00               0
GRID*               3734               0-5.000000000E+00-1.546487039E+01+
*       -6.500000000E+00               0
GRID*               3735               0-5.000000000E+00-1.352144927E+01+
*       -6.500000000E+00               0
GRID*               3736               0-5.000000000E+00-1.161135881E+01+
*       -6.500000000E+00               0
GRID*               3737               0-5.000000000E+00-9.743322548E+00+
*       -6.500000000E+00               0
GRID*               3738               0-5.000000000E+00-7.924340794E+00+
*       -6.500000000E+00               0
GRID*               3739               0-5.000000000E+00-6.159591420E+00+
*       -6.500000000E+00               0
GRID*               3740               0-5.000000000E+00-4.452463441E+00+
*       -6.500000000E+00               0
GRID*               3741               0-5.000000000E+00-2.804693386E+00+
*       -6.500000000E+00               0
GRID*               3742               0-5.000000000E+00-1.216569008E+00+
*       -6.500000000E+00               0
GRID*               3743               0-5.000000000E+003.1283339869E-01+
*       -6.500000000E+00               0
GRID*               3744               0-5.000000000E+001.7854057917E+00+
*       -6.500000000E+00               0
GRID*               3745               0-5.000000000E+003.2037791463E+00+
*       -6.500000000E+00               0
GRID*               3746               0-5.000000000E+004.5711203594E+00+
*       -6.500000000E+00               0
GRID*               3747               0-5.000000000E+005.8909610829E+00+
*       -6.500000000E+00               0
GRID*               3748               0-5.000000000E+007.1670596019E+00+
*       -6.500000000E+00               0
GRID*               3749               0-5.000000000E+008.4032938642E+00+
*       -6.500000000E+00               0
GRID*               3750               0-5.000000000E+009.6035821127E+00+
*       -6.500000000E+00               0
GRID*               3751               0-5.000000000E+001.0771826905E+01+
*       -6.500000000E+00               0
GRID*               3752               0-5.000000000E+001.1911878271E+01+
*       -6.500000000E+00               0
GRID*               3753               0-5.000000000E+001.3027512102E+01+
*       -6.500000000E+00               0
GRID*               3754               0-5.000000000E+001.4122420380E+01+
*       -6.500000000E+00               0
GRID*               3755               0-5.000000000E+001.5200210414E+01+
*       -6.500000000E+00               0
GRID*               3756               0-5.000000000E+001.6264410791E+01+
*       -6.500000000E+00               0
GRID*               3757               0-5.000000000E+001.7318482233E+01+
*       -6.500000000E+00               0
GRID*               3758               0-5.000000000E+001.8365831908E+01+
*       -6.500000000E+00               0
GRID*               3759               0-4.182892035E+00-1.887812133E+01+
*       6.5000000000E+00               0
GRID*               3760               0-3.322497656E+00-1.837190996E+01+
*       6.5000000000E+00               0
GRID*               3761               0-2.402475515E+00-1.798582548E+01+
*       6.5000000000E+00               0
GRID*               3762               0-1.438868033E+00-1.772674629E+01+
*       6.5000000000E+00               0
GRID*               3763               0-4.491830183E-01-1.759940593E+01+
*       6.5000000000E+00               0
GRID*               3764               05.4850817869E-01-1.760610497E+01+
*       6.5000000000E+00               0
GRID*               3765               01.5363654007E+00-1.774671512E+01+
*       6.5000000000E+00               0
GRID*               3766               02.4964366117E+00-1.801871436E+01+
*       6.5000000000E+00               0
GRID*               3767               03.4112183038E+00-1.841713314E+01+
*       6.5000000000E+00               0
GRID*               3768               04.2651317710E+00-1.893426225E+01+
*       6.5000000000E+00               0
GRID*               3769               0-5.000000000E+001.8350395995E+01+
*       6.5000000000E+00               0
GRID*               3770               0-5.000000000E+001.7291036856E+01+
*       6.5000000000E+00               0
GRID*               3771               0-5.000000000E+001.6231827067E+01+
*       6.5000000000E+00               0
GRID*               3772               0-5.000000000E+001.5172839877E+01+
*       6.5000000000E+00               0
GRID*               3773               0-5.000000000E+001.4114146842E+01+
*       6.5000000000E+00               0
GRID*               3774               0-5.000000000E+001.3055817282E+01+
*       6.5000000000E+00               0
GRID*               3775               0-5.000000000E+001.1997917757E+01+
*       6.5000000000E+00               0
GRID*               3776               0-5.000000000E+001.0940511572E+01+
*       6.5000000000E+00               0
GRID*               3777               0-5.000000000E+009.8836583061E+00+
*       6.5000000000E+00               0
GRID*               3778               0-5.000000000E+008.8274133721E+00+
*       6.5000000000E+00               0
GRID*               3779               0-5.000000000E+007.7718276175E+00+
*       6.5000000000E+00               0
GRID*               3780               0-5.000000000E+006.7169469583E+00+
*       6.5000000000E+00               0
GRID*               3781               0-5.000000000E+005.6628120555E+00+
*       6.5000000000E+00               0
GRID*               3782               0-5.000000000E+004.6094580348E+00+
*       6.5000000000E+00               0
GRID*               3783               0-5.000000000E+003.5569142502E+00+
*       6.5000000000E+00               0
GRID*               3784               0-5.000000000E+002.5052040941E+00+
*       6.5000000000E+00               0
GRID*               3785               0-5.000000000E+001.4543448533E+00+
*       6.5000000000E+00               0
GRID*               3786               0-5.000000000E+004.0434761183E-01+
*       6.5000000000E+00               0
GRID*               3787               0-5.000000000E+00-6.447827996E-01+
*       6.5000000000E+00               0
GRID*               3788               0-5.000000000E+00-1.693047808E+00+
*       6.5000000000E+00               0
GRID*               3789               0-5.000000000E+00-2.740455055E+00+
*       6.5000000000E+00               0
GRID*               3790               0-5.000000000E+00-3.787018317E+00+
*       6.5000000000E+00               0
GRID*               3791               0-5.000000000E+00-4.832757370E+00+
*       6.5000000000E+00               0
GRID*               3792               0-5.000000000E+00-5.877697827E+00+
*       6.5000000000E+00               0
GRID*               3793               0-5.000000000E+00-6.921870927E+00+
*       6.5000000000E+00               0
GRID*               3794               0-5.000000000E+00-7.965313293E+00+
*       6.5000000000E+00               0
GRID*               3795               0-5.000000000E+00-9.008066649E+00+
*       6.5000000000E+00               0
GRID*               3796               0-5.000000000E+00-1.005017751E+01+
*       6.5000000000E+00               0
GRID*               3797               0-5.000000000E+00-1.109169685E+01+
*       6.5000000000E+00               0
GRID*               3798               0-5.000000000E+00-1.213267972E+01+
*       6.5000000000E+00               0
GRID*               3799               0-5.000000000E+00-1.317318486E+01+
*       6.5000000000E+00               0
GRID*               3800               0-5.000000000E+00-1.421327429E+01+
*       6.5000000000E+00               0
GRID*               3801               0-5.000000000E+00-1.525301288E+01+
*       6.5000000000E+00               0
GRID*               3802               0-5.000000000E+00-1.629246788E+01+
*       6.5000000000E+00               0
GRID*               3803               0-5.000000000E+00-1.733170848E+01+
*       6.5000000000E+00               0
GRID*               3804               0-5.000000000E+00-1.837080535E+01+
*       6.5000000000E+00               0
GRID*               3805               04.1828906607E+001.8878120407E+01+
*       6.5000000000E+00               0
GRID*               3806               03.3224961449E+001.8371909203E+01+
*       6.5000000000E+00               0
GRID*               3807               02.4024738869E+001.7985824927E+01+
*       6.5000000000E+00               0
GRID*               3808               01.4388663148E+001.7726745950E+01+
*       6.5000000000E+00               0
GRID*               3809               04.4918123755E-011.7599405826E+01+
*       6.5000000000E+00               0
GRID*               3810               0-5.485099893E-011.7606105107E+01+
*       6.5000000000E+00               0
GRID*               3811               0-1.536367207E+001.7746715502E+01+
*       6.5000000000E+00               0
GRID*               3812               0-2.496438381E+001.8018714997E+01+
*       6.5000000000E+00               0
GRID*               3813               0-3.411220000E+001.8417134017E+01+
*       6.5000000000E+00               0
GRID*               3814               0-4.265133369E+001.8934263353E+01+
*       6.5000000000E+00               0
GRID*               3815               05.0000000000E+00-1.835039386E+01+
*       6.5000000000E+00               0
GRID*               3816               05.0000000000E+00-1.729103260E+01+
*       6.5000000000E+00               0
GRID*               3817               05.0000000000E+00-1.623182072E+01+
*       6.5000000000E+00               0
GRID*               3818               05.0000000000E+00-1.517283149E+01+
*       6.5000000000E+00               0
GRID*               3819               05.0000000000E+00-1.411413647E+01+
*       6.5000000000E+00               0
GRID*               3820               05.0000000000E+00-1.305580501E+01+
*       6.5000000000E+00               0
GRID*               3821               05.0000000000E+00-1.199790367E+01+
*       6.5000000000E+00               0
GRID*               3822               05.0000000000E+00-1.094049578E+01+
*       6.5000000000E+00               0
GRID*               3823               05.0000000000E+00-9.883640917E+00+
*       6.5000000000E+00               0
GRID*               3824               05.0000000000E+00-8.827394518E+00+
*       6.5000000000E+00               0
GRID*               3825               05.0000000000E+00-7.771807437E+00+
*       6.5000000000E+00               0
GRID*               3826               05.0000000000E+00-6.716925599E+00+
*       6.5000000000E+00               0
GRID*               3827               05.0000000000E+00-5.662789675E+00+
*       6.5000000000E+00               0
GRID*               3828               05.0000000000E+00-4.609434795E+00+
*       6.5000000000E+00               0
GRID*               3829               05.0000000000E+00-3.556890321E+00+
*       6.5000000000E+00               0
GRID*               3830               05.0000000000E+00-2.505179649E+00+
*       6.5000000000E+00               0
GRID*               3831               05.0000000000E+00-1.454320070E+00+
*       6.5000000000E+00               0
GRID*               3832               05.0000000000E+00-4.043226689E-01+
*       6.5000000000E+00               0
GRID*               3833               05.0000000000E+006.4480772198E-01+
*       6.5000000000E+00               0
GRID*               3834               05.0000000000E+001.6930725301E+00+
*       6.5000000000E+00               0
GRID*               3835               05.0000000000E+002.7404794003E+00+
*       6.5000000000E+00               0
GRID*               3836               05.0000000000E+003.7870421101E+00+
*       6.5000000000E+00               0
GRID*               3837               05.0000000000E+004.8327804416E+00+
*       6.5000000000E+00               0
GRID*               3838               05.0000000000E+005.8777200126E+00+
*       6.5000000000E+00               0
GRID*               3839               05.0000000000E+006.9218920693E+00+
*       6.5000000000E+00               0
GRID*               3840               05.0000000000E+007.9653332414E+00+
*       6.5000000000E+00               0
GRID*               3841               05.0000000000E+009.0080852627E+00+
*       6.5000000000E+00               0
GRID*               3842               05.0000000000E+001.0050194660E+01+
*       6.5000000000E+00               0
GRID*               3843               05.0000000000E+001.1091712413E+01+
*       6.5000000000E+00               0
GRID*               3844               05.0000000000E+001.2132693585E+01+
*       6.5000000000E+00               0
GRID*               3845               05.0000000000E+001.3173196930E+01+
*       6.5000000000E+00               0
GRID*               3846               05.0000000000E+001.4213284481E+01+
*       6.5000000000E+00               0
GRID*               3847               05.0000000000E+001.5253021116E+01+
*       6.5000000000E+00               0
GRID*               3848               05.0000000000E+001.6292474108E+01+
*       6.5000000000E+00               0
GRID*               3849               05.0000000000E+001.7331712662E+01+
*       6.5000000000E+00               0
GRID*               3850               05.0000000000E+001.8370807444E+01+
*       6.5000000000E+00               0
GRID*               3851               05.7561496980E+002.0170426667E+01+
*       1.1000000000E+01               0
GRID*               3852               06.5823826567E+002.1405277236E+01+
*       1.1000000000E+01               0
GRID*               3853               07.2500425768E+002.3079874943E+01+
*       1.1000000000E+01               0
GRID*               3854               07.4999648206E+002.5013207335E+01+
*       1.1000000000E+01               0
GRID*               3855               07.2432178091E+002.6945644620E+01+
*       1.1000000000E+01               0
GRID*               3856               06.4971273412E+002.8746640204E+01+
*       1.1000000000E+01               0
GRID*               3857               05.3120580356E+003.0294492012E+01+
*       1.1000000000E+01               0
GRID*               3858               03.7681325359E+003.1484671514E+01+
*       1.1000000000E+01               0
GRID*               3859               01.9696279181E+003.2236746785E+01+
*       1.1000000000E+01               0
GRID*               3860               03.8049383980E-023.2499878087E+01+
*       1.1000000000E+01               0
GRID*               3861               0-1.896098931E+003.2256354937E+01+
*       1.1000000000E+01               0
GRID*               3862               0-3.702144894E+003.1522574349E+01+
*       1.1000000000E+01               0
GRID*               3863               0-5.258063667E+003.0348116906E+01+
*       1.1000000000E+01               0
GRID*               3864               0-6.458775429E+002.8812367860E+01+
*       1.1000000000E+01               0
GRID*               3865               0-7.223107808E+002.7019037994E+01+
*       1.1000000000E+01               0
GRID*               3866               0-7.499442460E+002.5089304275E+01+
*       1.1000000000E+01               0
GRID*               3867               0-7.269150013E+002.3153535727E+01+
*       1.1000000000E+01               0
GRID*               3868               0-6.621466894E+002.1477779105E+01+
*       1.1000000000E+01               0
GRID*               3869               0-5.805491969E+002.0251726348E+01+
*       1.1000000000E+01               0
GRID*               3870               05.0000000000E+001.9310366570E+01+
*       9.8734494785E+00               0
GRID*               3871               05.0000000000E+001.9343555224E+01+
*       8.7478082141E+00               0
GRID*               3872               05.0000000000E+001.9376706022E+01+
*       7.6234508677E+00               0
GRID*               3873               0-4.191537974E+001.8883965227E+01+
*       1.1000000000E+01               0
GRID*               3874               0-3.340951567E+001.8381192898E+01+
*       1.1000000000E+01               0
GRID*               3875               0-2.431657595E+001.7995888503E+01+
*       1.1000000000E+01               0
GRID*               3876               0-1.479138455E+001.7734828943E+01+
*       1.1000000000E+01               0
GRID*               3877               0-5.003812046E-011.7602691680E+01+
*       1.1000000000E+01               0
GRID*               3878               04.8713741532E-011.7601807611E+01+
*       1.1000000000E+01               0
GRID*               3879               01.4661334506E+001.7732193331E+01+
*       1.1000000000E+01               0
GRID*               3880               02.4191145822E+001.7991546568E+01+
*       1.1000000000E+01               0
GRID*               3881               03.3290933318E+001.8375220403E+01+
*       1.1000000000E+01               0
GRID*               3882               04.1805376347E+001.8876531909E+01+
*       1.1000000000E+01               0
GRID*               3883               0-5.000000000E+001.8360334639E+01+
*       1.1000000000E+01               0
GRID*               3884               0-5.000000000E+001.7310841459E+01+
*       1.1000000000E+01               0
GRID*               3885               0-5.000000000E+001.6261352810E+01+
*       1.1000000000E+01               0
GRID*               3886               0-5.000000000E+001.5211870918E+01+
*       1.1000000000E+01               0
GRID*               3887               0-5.000000000E+001.4162397957E+01+
*       1.1000000000E+01               0
GRID*               3888               0-5.000000000E+001.3112936039E+01+
*       1.1000000000E+01               0
GRID*               3889               0-5.000000000E+001.2063487197E+01+
*       1.1000000000E+01               0
GRID*               3890               0-5.000000000E+001.1014053367E+01+
*       1.1000000000E+01               0
GRID*               3891               0-5.000000000E+009.9646363792E+00+
*       1.1000000000E+01               0
GRID*               3892               0-5.000000000E+008.9152379406E+00+
*       1.1000000000E+01               0
GRID*               3893               0-5.000000000E+007.8658596252E+00+
*       1.1000000000E+01               0
GRID*               3894               0-5.000000000E+006.8165028616E+00+
*       1.1000000000E+01               0
GRID*               3895               0-5.000000000E+005.7671689228E+00+
*       1.1000000000E+01               0
GRID*               3896               0-5.000000000E+004.7178589176E+00+
*       1.1000000000E+01               0
GRID*               3897               0-5.000000000E+003.6685737818E+00+
*       1.1000000000E+01               0
GRID*               3898               0-5.000000000E+002.6193142721E+00+
*       1.1000000000E+01               0
GRID*               3899               0-5.000000000E+001.5700809605E+00+
*       1.1000000000E+01               0
GRID*               3900               0-5.000000000E+005.2087423012E-01+
*       1.1000000000E+01               0
GRID*               3901               0-5.000000000E+00-5.283057276E-01+
*       1.1000000000E+01               0
GRID*               3902               0-5.000000000E+00-1.577458914E+00+
*       1.1000000000E+01               0
GRID*               3903               0-5.000000000E+00-2.626585523E+00+
*       1.1000000000E+01               0
GRID*               3904               0-5.000000000E+00-3.675685941E+00+
*       1.1000000000E+01               0
GRID*               3905               0-5.000000000E+00-4.724760741E+00+
*       1.1000000000E+01               0
GRID*               3906               0-5.000000000E+00-5.773810684E+00+
*       1.1000000000E+01               0
GRID*               3907               0-5.000000000E+00-6.822836705E+00+
*       1.1000000000E+01               0
GRID*               3908               0-5.000000000E+00-7.871839916E+00+
*       1.1000000000E+01               0
GRID*               3909               0-5.000000000E+00-8.920821591E+00+
*       1.1000000000E+01               0
GRID*               3910               0-5.000000000E+00-9.969783159E+00+
*       1.1000000000E+01               0
GRID*               3911               0-5.000000000E+00-1.101872619E+01+
*       1.1000000000E+01               0
GRID*               3912               0-5.000000000E+00-1.206765240E+01+
*       1.1000000000E+01               0
GRID*               3913               0-5.000000000E+00-1.311656361E+01+
*       1.1000000000E+01               0
GRID*               3914               0-5.000000000E+00-1.416546176E+01+
*       1.1000000000E+01               0
GRID*               3915               0-5.000000000E+00-1.521434888E+01+
*       1.1000000000E+01               0
GRID*               3916               0-5.000000000E+00-1.626322707E+01+
*       1.1000000000E+01               0
GRID*               3917               0-5.000000000E+00-1.731209852E+01+
*       1.1000000000E+01               0
GRID*               3918               0-5.000000000E+00-1.836096544E+01+
*       1.1000000000E+01               0
GRID*               3919               05.0000000000E+00-1.836591919E+01+
*       1.1000000000E+01               0
GRID*               3920               05.0000000000E+00-1.732199619E+01+
*       1.1000000000E+01               0
GRID*               3921               05.0000000000E+00-1.627804908E+01+
*       1.1000000000E+01               0
GRID*               3922               05.0000000000E+00-1.523406602E+01+
*       1.1000000000E+01               0
GRID*               3923               05.0000000000E+00-1.419003543E+01+
*       1.1000000000E+01               0
GRID*               3924               05.0000000000E+00-1.314594606E+01+
*       1.1000000000E+01               0
GRID*               3925               05.0000000000E+00-1.210178708E+01+
*       1.1000000000E+01               0
GRID*               3926               05.0000000000E+00-1.105754818E+01+
*       1.1000000000E+01               0
GRID*               3927               05.0000000000E+00-1.001321960E+01+
*       1.1000000000E+01               0
GRID*               3928               05.0000000000E+00-8.968792214E+00+
*       1.1000000000E+01               0
GRID*               3929               05.0000000000E+00-7.924257625E+00+
*       1.1000000000E+01               0
GRID*               3930               05.0000000000E+00-6.879608191E+00+
*       1.1000000000E+01               0
GRID*               3931               05.0000000000E+00-5.834837095E+00+
*       1.1000000000E+01               0
GRID*               3932               05.0000000000E+00-4.789938391E+00+
*       1.1000000000E+01               0
GRID*               3933               05.0000000000E+00-3.744907050E+00+
*       1.1000000000E+01               0
GRID*               3934               05.0000000000E+00-2.699738996E+00+
*       1.1000000000E+01               0
GRID*               3935               05.0000000000E+00-1.654431132E+00+
*       1.1000000000E+01               0
GRID*               3936               05.0000000000E+00-6.089813692E-01+
*       1.1000000000E+01               0
GRID*               3937               05.0000000000E+004.3661136119E-01+
*       1.1000000000E+01               0
GRID*               3938               05.0000000000E+001.4823470982E+00+
*       1.1000000000E+01               0
GRID*               3939               05.0000000000E+002.5282248501E+00+
*       1.1000000000E+01               0
GRID*               3940               05.0000000000E+003.5742426006E+00+
*       1.1000000000E+01               0
GRID*               3941               05.0000000000E+004.6203973228E+00+
*       1.1000000000E+01               0
GRID*               3942               05.0000000000E+005.6666850002E+00+
*       1.1000000000E+01               0
GRID*               3943               05.0000000000E+006.7131006548E+00+
*       1.1000000000E+01               0
GRID*               3944               05.0000000000E+007.7596383825E+00+
*       1.1000000000E+01               0
GRID*               3945               05.0000000000E+008.8062913953E+00+
*       1.1000000000E+01               0
GRID*               3946               05.0000000000E+009.8530520700E+00+
*       1.1000000000E+01               0
GRID*               3947               05.0000000000E+001.0899912002E+01+
*       1.1000000000E+01               0
GRID*               3948               05.0000000000E+001.1946862069E+01+
*       1.1000000000E+01               0
GRID*               3949               05.0000000000E+001.2993892490E+01+
*       1.1000000000E+01               0
GRID*               3950               05.0000000000E+001.4040992904E+01+
*       1.1000000000E+01               0
GRID*               3951               05.0000000000E+001.5088152442E+01+
*       1.1000000000E+01               0
GRID*               3952               05.0000000000E+001.6135359802E+01+
*       1.1000000000E+01               0
GRID*               3953               05.0000000000E+001.7182603336E+01+
*       1.1000000000E+01               0
GRID*               3954               05.0000000000E+001.8229871134E+01+
*       1.1000000000E+01               0
GRID*               3955               04.1907606477E+00-1.888343935E+01+
*       1.1000000000E+01               0
GRID*               3956               03.3392931716E+00-1.838035603E+01+
*       1.1000000000E+01               0
GRID*               3957               02.4290352008E+00-1.799497865E+01+
*       1.1000000000E+01               0
GRID*               3958               01.4755191083E+00-1.773409301E+01+
*       1.1000000000E+01               0
GRID*               3959               04.9577840197E-01-1.760238173E+01+
*       1.1000000000E+01               0
GRID*               3960               0-4.926572881E-01-1.760217319E+01+
*       1.1000000000E+01               0
GRID*               3961               0-1.472454371E+00-1.773347131E+01+
*       1.1000000000E+01               0
GRID*               3962               0-2.426079541E+00-1.799395448E+01+
*       1.1000000000E+01               0
GRID*               3963               0-3.336499186E+00-1.837894730E+01+
*       1.1000000000E+01               0
GRID*               3964               0-4.188168838E+00-1.888168663E+01+
*       1.1000000000E+01               0
GRID*               3965               06.7071065903E+00-2.500000000E+01+
*       -1.129289341E+01               0
GRID*               3966               06.7071065903E+00-2.500000000E+01+
*       -6.207106590E+00               0
GRID*               3967               06.7071065903E+002.5000000000E+01+
*       -1.129289341E+01               0
GRID*               3968               06.7071065903E+002.5000000000E+01+
*       -6.207106590E+00               0
GRID*               3969               05.0000000000E+00-2.500000000E+01+
*       -1.300000000E+01               0
GRID*               3970               05.0000000000E+00-2.500000000E+01+
*       -4.500000000E+00               0
GRID*               3971               05.0000000000E+00-2.500000000E+01+
*       4.5000000000E+00               0
GRID*               3972               05.0000000000E+00-2.500000000E+01+
*       1.3000000000E+01               0
GRID*               3973               0-5.000000000E+00-1.940983009E+01+
*       -6.500000000E+00               0
GRID*               3974               0-5.000000000E+00-1.940983009E+01+
*       -1.100000000E+01               0
GRID*               3975               0-5.000000000E+00-1.940983009E+01+
*       1.1000000000E+01               0
GRID*               3976               0-5.000000000E+00-1.940983009E+01+
*       6.5000000000E+00               0
GRID*               3977               0-5.000000000E+001.9409830093E+01+
*       -1.100000000E+01               0
GRID*               3978               0-5.000000000E+001.9409830093E+01+
*       -6.500000000E+00               0
GRID*               3979               0-5.000000000E+001.9409830093E+01+
*       6.5000000000E+00               0
GRID*               3980               0-5.000000000E+001.9409830093E+01+
*       1.1000000000E+01               0
GRID*               3981               05.0000000000E+002.5000000000E+01+
*       -1.300000000E+01               0
GRID*               3982               05.0000000000E+002.5000000000E+01+
*       -4.500000000E+00               0
GRID*               3983               05.0000000000E+002.5000000000E+01+
*       4.5000000000E+00               0
GRID*               3984               05.0000000000E+002.5000000000E+01+
*       1.3000000000E+01               0
GRID*               3985               02.5000000000E+00-2.500000000E+01+
*       -1.300000000E+01               0
GRID*               3986               02.5000000000E+00-2.500000000E+01+
*       -4.500000000E+00               0
GRID*               3987               02.5000000000E+00-2.500000000E+01+
*       4.5000000000E+00               0
GRID*               3988               02.5000000000E+00-2.500000000E+01+
*       1.3000000000E+01               0
GRID*               3989               02.5000000000E+002.5000000000E+01+
*       -4.500000000E+00               0
GRID*               3990               02.5000000000E+002.5000000000E+01+
*       4.5000000000E+00               0
GRID*               3991               05.0000000000E+00-1.940983009E+01+
*       -1.100000000E+01               0
GRID*               3992               05.0000000000E+00-1.940983009E+01+
*       -6.500000000E+00               0
GRID*               3993               05.0000000000E+00-1.940983009E+01+
*       6.5000000000E+00               0
GRID*               3994               05.0000000000E+00-1.940983009E+01+
*       1.1000000000E+01               0
GRID*               3995               05.0000000000E+001.9409830093E+01+
*       -1.100000000E+01               0
GRID*               3996               05.0000000000E+001.9409830093E+01+
*       -6.500000000E+00               0
GRID*               3997               05.0000000000E+001.9409830093E+01+
*       6.5000000000E+00               0
GRID*               3998               0-6.707106590E+00-2.500000000E+01+
*       6.2071065903E+00               0
GRID*               3999               0-6.707106590E+00-2.500000000E+01+
*       1.1292893410E+01               0
GRID*               4000               0-6.707106590E+002.5000000000E+01+
*       6.2071065903E+00               0
GRID*               4001               0-6.707106590E+002.5000000000E+01+
*       1.1292893410E+01               0
GRID*               4002               05.0000000000E+001.9277151108E+01+
*       1.1000000000E+01               0
$*
$* ELEMENT CARDS
$*
$*  Mesh Collector: Solid(1)
$*  Mesh: 3d_mesh(1)
CTETRA         1       1       1       2       3       4
CTETRA         2       1    3160    2312       1       4
CTETRA         3       1       5       3       6       4
CTETRA         4       1    3160       1       5       4
CTETRA         5       1       5       7       6       3
CTETRA         6       1       8       9      10      11
CTETRA         7       1      12      13      14      11
CTETRA         8       1       8      14      13      11
CTETRA         9       1      15      16       9      11
CTETRA        10       1    3054    1225      17      18
CTETRA        11       1      19      12      20      11
CTETRA        12       1      19      20      16      11
CTETRA        13       1      21      22      23      24
CTETRA        14       1    3119    1379      25      26
CTETRA        15       1    3575      27    3576      28
CTETRA        16       1    1778    1793    1792      29
CTETRA        17       1    3883    3873    2747      26
CTETRA        18       1      30      31      25      26
CTETRA        19       1    1777    1778    1792      29
CTETRA        20       1      32      33      34      35
CTETRA        21       1    1379      36      37      25
CTETRA        22       1    3566      30    3874      26
CTETRA        23       1    3566    3567      30      26
CTETRA        24       1    3874      36    2747      26
CTETRA        25       1    2958      38      39      40
CTETRA        26       1      30      25      36      26
CTETRA        27       1    1784    1799    1798      41
CTETRA        28       1    3243    1957    1956      42
CTETRA        29       1    3242      42    3243      43
CTETRA        30       1    1956      43      42      44
CTETRA        31       1    3296    1610    2933    1612
CTETRA        32       1    3255    1588      45      46
CTETRA        33       1    3468    2271      47      48
CTETRA        34       1    1220      49      50      51
CTETRA        35       1    3125    1441    1448      52
CTETRA        36       1      53      54      55      56
CTETRA        37       1      57      58      59      56
CTETRA        38       1    1603    1604    1606      60
CTETRA        39       1    1747    1762      61      62
CTETRA        40       1      55      63      64      56
CTETRA        41       1    1304    1305    1313      65
CTETRA        42       1    1947    1948    1962      66
CTETRA        43       1    3989      19      67      68
CTETRA        44       1    1304      65    1313      69
CTETRA        45       1    3247      70       8      71
CTETRA        46       1    1958    1959    1973      72
CTETRA        47       1    1951    1966    1965      73
CTETRA        48       1    1956    1971      74      44
CTETRA        49       1      58      75      59      56
CTETRA        50       1      76      77      78      56
CTETRA        51       1    3577    3578    1915      79
CTETRA        52       1    2366    2367      80      81
CTETRA        53       1      82      83      33      84
CTETRA        54       1    2920    1613    2921      85
CTETRA        55       1    2916    1605    1607      86
CTETRA        56       1    3867    3571    3868    1720
CTETRA        57       1      76      87      77      56
CTETRA        58       1    1865      88      89      90
CTETRA        59       1      58      54      75      56
CTETRA        60       1    2910    2911      91      92
CTETRA        61       1    1853    1538    1854      93
CTETRA        62       1      94      95      96      97
CTETRA        63       1      94      96      98      97
CTETRA        64       1      99     100      96      97
CTETRA        65       1    2010    2026    2025     101
CTETRA        66       1    1995    2010    2009     102
CTETRA        67       1    2041    2042     103     101
CTETRA        68       1    3257    3258      78     104
CTETRA        69       1    2476      65    2484      69
CTETRA        70       1    2479    2485     105      69
CTETRA        71       1     106     107     108     109
CTETRA        72       1    3240    1572     110     111
CTETRA        73       1    2476    2480      65      69
CTETRA        74       1    1685    1688    1687     112
CTETRA        75       1    3252    1947    3253     113
CTETRA        76       1    3120    1656    3981     114
CTETRA        77       1    1656    1661    1659     115
CTETRA        78       1      99      95     116      97
CTETRA        79       1     117     118     116      97
CTETRA        80       1    1447     119     120     121
CTETRA        81       1    3098    3099    1541     122
CTETRA        82       1     123     124     125     126
CTETRA        83       1    3928    2206    2209    2810
CTETRA        84       1     127     128      92     129
CTETRA        85       1     130     131     132     133
CTETRA        86       1     134     130     132     133
CTETRA        87       1    3242    1958    1957      42
CTETRA        88       1    2004    2020     135     136
CTETRA        89       1     111     131     137     133
CTETRA        90       1     138     139     130     137
CTETRA        91       1    2004     140    2005     136
CTETRA        92       1    1990     140     141     142
CTETRA        93       1    3582     141    1976     142
CTETRA        94       1    1991     143     136     142
CTETRA        95       1     143     144     136     142
CTETRA        96       1      67     145     146      20
CTETRA        97       1      12      14      20      11
CTETRA        98       1      67     146      68      20
CTETRA        99       1    1679     147    1680     132
CTETRA       100       1     148     149     115     150
CTETRA       101       1    3007    3361    1679     151
CTETRA       102       1      12      14     139      20
CTETRA       103       1     152     153      10      14
CTETRA       104       1      19      16      15      11
CTETRA       105       1      10      20      14      11
CTETRA       106       1    3927    2212    2809    2810
CTETRA       107       1    3008    3009    1486     131
CTETRA       108       1      19      67      12     137
CTETRA       109       1       8      10      14      11
CTETRA       110       1     150      13     154     155
CTETRA       111       1     156     157     158     159
CTETRA       112       1     160     161     162     159
CTETRA       113       1    3982    1489    1490     111
CTETRA       114       1     161     163     162     159
CTETRA       115       1     161     164     165     159
CTETRA       116       1     157     165     166     159
CTETRA       117       1    2209    2212    2810     167
CTETRA       118       1     163     165     157     159
CTETRA       119       1    3089    1537    1525      90
CTETRA       120       1     168     169     170     171
CTETRA       121       1     172     173     174     171
CTETRA       122       1     175      93     176     177
CTETRA       123       1    3090    1536    1537     178
CTETRA       124       1    2790    2810    2806     179
CTETRA       125       1     180     181     173     171
CTETRA       126       1    3048     182    1490     183
CTETRA       127       1    3982    1571    1572     111
CTETRA       128       1     184     170     169     171
CTETRA       129       1     184     169     172     171
CTETRA       130       1    2551    2558    2552     185
CTETRA       131       1    3008     182     186     131
CTETRA       132       1    1304    1313    1319      69
CTETRA       133       1    1312    2422     187      65
CTETRA       134       1    2479    2485    2481     105
CTETRA       135       1    2479    2480    2485      69
CTETRA       136       1    3009     188    1486     131
CTETRA       137       1    2557     189     105      69
CTETRA       138       1    3327    1642    3453     190
CTETRA       139       1    3242      42      43      72
CTETRA       140       1     191     132     192     193
CTETRA       141       1     182     134     132     133
CTETRA       142       1    1271     187    1308     194
CTETRA       143       1     130     137     131     133
CTETRA       144       1     186     182     132     131
CTETRA       145       1    3327    3451    3328    1644
CTETRA       146       1    2931    1257     195     196
CTETRA       147       1    2565    2574     187     194
CTETRA       148       1    2924    2925    1239     197
CTETRA       149       1    1486     198     111     131
CTETRA       150       1    1808    1809    1824     199
CTETRA       151       1     200     201     202     203
CTETRA       152       1     111     182     131     133
CTETRA       153       1    3295    2930     204     195
CTETRA       154       1    1258    1260     205     206
CTETRA       155       1     198     137     111     131
CTETRA       156       1    3295    3296    2931    1612
CTETRA       157       1    1262     207     208     209
CTETRA       158       1    1809    1824     199     210
CTETRA       159       1    2641     211     212     213
CTETRA       160       1     214     215     216     217
CTETRA       161       1    2818    2823    2819     213
CTETRA       162       1    2638    2639    2662     218
CTETRA       163       1    2823    2824    2834     219
CTETRA       164       1    2835    2841    2836     220
CTETRA       165       1     221     222     223     217
CTETRA       166       1     224     223     225     217
CTETRA       167       1     226     227     153     217
CTETRA       168       1    3419     228    2243     229
CTETRA       169       1     224     227     221     217
CTETRA       170       1    3885    2748    1373    2749
CTETRA       171       1    3885    3886    1373    2748
CTETRA       172       1     230     227     231     217
CTETRA       173       1     232     233     234     235
CTETRA       174       1     236     118     237     235
CTETRA       175       1     238     239      98      97
CTETRA       176       1     236     235     239      97
CTETRA       177       1     117     235     118      97
CTETRA       178       1      98     239     233     235
CTETRA       179       1     117     240     118     235
CTETRA       180       1     241     242     243     244
CTETRA       181       1     245     246     247     244
CTETRA       182       1     245     247     248     244
CTETRA       183       1     245     249     242     244
CTETRA       184       1     250     242     245     249
CTETRA       185       1     243     249     251     244
CTETRA       186       1     252     253     254     255
CTETRA       187       1    2143    2652    2645     256
CTETRA       188       1     252     257     253     255
CTETRA       189       1    1316    1330    1331     258
CTETRA       190       1    1329    1330    2506     258
CTETRA       191       1     259     260     261     262
CTETRA       192       1    2361    2459    2458     258
CTETRA       193       1    2067    2069    2068     263
CTETRA       194       1    2384     264     265     266
CTETRA       195       1     267     268     269     255
CTETRA       196       1     270     271     272     273
CTETRA       197       1     274      67     137     275
CTETRA       198       1     276     277     278     279
CTETRA       199       1    3164    2299     280     281
CTETRA       200       1    3872    3506     282     283
CTETRA       201       1    3517     284     285     286
CTETRA       202       1    2479     189    2480      69
CTETRA       203       1    1299    2354    2407     287
CTETRA       204       1    3997    3872    3506     282
CTETRA       205       1     272     273     288     289
CTETRA       206       1     290       3     291     289
CTETRA       207       1    1300    2407    2411     287
CTETRA       208       1     277     288     273     289
CTETRA       209       1      78     292     293     294
CTETRA       210       1     295     296     297     294
CTETRA       211       1    1917     125     298     299
CTETRA       212       1    3465    2272    2265     300
CTETRA       213       1    3107    3108    1542     301
CTETRA       214       1     292     297     302     294
CTETRA       215       1     296     293     302     294
CTETRA       216       1     292     302     303     293
CTETRA       217       1    2203    2207    2206     179
CTETRA       218       1     304     104     305     293
CTETRA       219       1    2789     306    2802     307
CTETRA       220       1    1467    1483     308     309
CTETRA       221       1       7     296     295     294
CTETRA       222       1    3929    2203    2206    2797
CTETRA       223       1     310     302     296     293
CTETRA       224       1    2157    2854    2855     311
CTETRA       225       1    3947    2160    2157    2855
CTETRA       226       1     304     293     296     294
CTETRA       227       1    2153    2157    2156     311
CTETRA       228       1     312     313      46     293
CTETRA       229       1      46     104      78     293
CTETRA       230       1     314     315     121     223
CTETRA       231       1    3697    2093    3698    2494
CTETRA       232       1     316     224     221     223
CTETRA       233       1     316     317     224     223
CTETRA       234       1     317     225     224     223
CTETRA       235       1    3632    3633    2066    2416
CTETRA       236       1     216     225     223     217
CTETRA       237       1     216     318     222     223
CTETRA       238       1    3996    3407    2095     319
CTETRA       239       1    3639    2345    2084     320
CTETRA       240       1    3401    3640    3650    2084
CTETRA       241       1     321     322     323     324
CTETRA       242       1     325     326     302     324
CTETRA       243       1    3632    2066    2366    2416
CTETRA       244       1     322     327     328     324
CTETRA       245       1     329     326     325     324
CTETRA       246       1     328     327     330     324
CTETRA       247       1     331     332     164     166
CTETRA       248       1    3256    3257      78     104
CTETRA       249       1     333      40     334     166
CTETRA       250       1     335     336     165     166
CTETRA       251       1     332     335     165     166
CTETRA       252       1    2557      65     189      69
CTETRA       253       1    1998    2014    2013     337
CTETRA       254       1    1977      66    1978     143
CTETRA       255       1     338     339     340     341
CTETRA       256       1     259     342     260     343
CTETRA       257       1     344     342     345     343
CTETRA       258       1     346     347     348     343
CTETRA       259       1    3757    2499    1284    2501
CTETRA       260       1     259     345     342     343
CTETRA       261       1    2497     349     350     351
CTETRA       262       1    1767    1782    1781     352
CTETRA       263       1    2886    1238    1236     353
CTETRA       264       1    1752    1767    1766     354
CTETRA       265       1    2888    1237    1238     355
CTETRA       266       1    1766    1767    1781     352
CTETRA       267       1    3852    3556    3555     356
CTETRA       268       1     357     358     359     360
CTETRA       269       1     361     260     262     360
CTETRA       270       1     261     359     358     360
CTETRA       271       1      15     362      13      11
CTETRA       272       1     145      10     146      20
CTETRA       273       1     145     363     364      10
CTETRA       274       1     364     363     152      10
CTETRA       275       1     145     363      10      20
CTETRA       276       1    2311     365     366     367
CTETRA       277       1    3570    3571    2337     368
CTETRA       278       1    3575    1871      27     369
CTETRA       279       1    3006     370    1682     151
CTETRA       280       1    3041    1694    3375     371
CTETRA       281       1    1931    1542    1556     301
CTETRA       282       1    3867    3571    1720     372
CTETRA       283       1    3972    1555    1556     373
CTETRA       284       1     139      14     363      20
CTETRA       285       1      68     146      16      20
CTETRA       286       1    3611    3612    2099    2417
CTETRA       287       1     315     230     221     374
CTETRA       288       1    3336    3478    3337    1633
CTETRA       289       1     227      13     154     375
CTETRA       290       1    3337    3338    1632     376
CTETRA       291       1     154      13     374     375
CTETRA       292       1     309     374     377     375
CTETRA       293       1     315     378     230     374
CTETRA       294       1     370     130     379     192
CTETRA       295       1     130     192     132     193
CTETRA       296       1    3501     380    3502       2
CTETRA       297       1     109     381     382     383
CTETRA       298       1     149     384     106     383
CTETRA       299       1     385     382     381     383
CTETRA       300       1    2120    2417    2469     386
CTETRA       301       1     385     379     387     383
CTETRA       302       1     149     379     388     383
CTETRA       303       1     389      29      23      86
CTETRA       304       1     149     388     384     383
CTETRA       305       1    2933    1610    2934     390
CTETRA       306       1    3296    3297    2933    1610
CTETRA       307       1     361     262     358     360
CTETRA       308       1    2891     361    2892     391
CTETRA       309       1     346     260     259     262
CTETRA       310       1    3991    2890     346     262
CTETRA       311       1    3991    3401    3650     262
CTETRA       312       1     391     260     346     262
CTETRA       313       1    2091    2423    2100     392
CTETRA       314       1     108     109     393     394
CTETRA       315       1    2882    2884    2883     395
CTETRA       316       1     109     396     393     394
CTETRA       317       1     397     398     399     394
CTETRA       318       1    1435    2739    2884     400
CTETRA       319       1     401     398     381     394
CTETRA       320       1    3566    3873    3567      26
CTETRA       321       1     402     403     404     405
CTETRA       322       1     406     399     407     393
CTETRA       323       1    3563    2338     408     270
CTETRA       324       1    3118    1384    1383      25
CTETRA       325       1    2789     306     307     179
CTETRA       326       1    3117    1382    3814     409
CTETRA       327       1     410     411     412     328
CTETRA       328       1    3868    1722    1720     413
CTETRA       329       1    3930    2795    2203    2797
CTETRA       330       1    3008    1680     186     182
CTETRA       331       1     371     237     236     118
CTETRA       332       1    3008    3379    1680     182
CTETRA       333       1    3007    1464    1460     414
CTETRA       334       1    1412    1413     415     416
CTETRA       335       1    3929    2206    2790    2797
CTETRA       336       1    2718     417    2724     416
CTETRA       337       1    1410     418    1413     416
CTETRA       338       1    2206    2790    2797     179
CTETRA       339       1    3867    1720    1718     372
CTETRA       340       1    2740    2741    2883     400
CTETRA       341       1     419     420     421     422
CTETRA       342       1    2094    2359     423     424
CTETRA       343       1    3794    1409    2723    2724
CTETRA       344       1    3964    1439    2882     395
CTETRA       345       1    1406     417    1410     416
CTETRA       346       1    1406    2724     417     416
CTETRA       347       1    2095     425     426     319
CTETRA       348       1    3014    3688     427     319
CTETRA       349       1    3996    2095    3697     319
CTETRA       350       1    3441     200    3442     428
CTETRA       351       1    3915    1435    2739    2884
CTETRA       352       1     429     430     241     251
CTETRA       353       1    1434    1438    1437     431
CTETRA       354       1    3014     427     432     319
CTETRA       355       1    3698    2093    2493    2494
CTETRA       356       1    3013    3996    3687     319
CTETRA       357       1    3407     432     425     319
CTETRA       358       1    2093     426     433     421
CTETRA       359       1    3013     432    3996     319
CTETRA       360       1    3886    2743    1373    2748
CTETRA       361       1    3612    2120    2417    2469
CTETRA       362       1     434     435     436     437
CTETRA       363       1     435     438     436     439
CTETRA       364       1     174     440     441     437
CTETRA       365       1    1397    2721    2708     442
CTETRA       366       1    3791    2708    1397    2721
CTETRA       367       1    2708    2721    2717     442
CTETRA       368       1     170     174     437     171
CTETRA       369       1     443     174     181     171
CTETRA       370       1     170     437     439     171
CTETRA       371       1    2423    2424    2440     392
CTETRA       372       1    2439    2440    2442     444
CTETRA       373       1    2432     445     446     447
CTETRA       374       1     448     449     450     118
CTETRA       375       1     449     451     116     118
CTETRA       376       1     236     116     451     118
CTETRA       377       1     452     237     371     118
CTETRA       378       1    2423    2440    2430     392
CTETRA       379       1     453     236     451     118
CTETRA       380       1     454     455     456     457
CTETRA       381       1    2404    2412     458     459
CTETRA       382       1    2403    2409     460     461
CTETRA       383       1    3728    2549    2550     462
CTETRA       384       1     456     455     463     464
CTETRA       385       1    3645    2401     465     466
CTETRA       386       1    2486    2548    2549     467
CTETRA       387       1    1316    1318    1317     105
CTETRA       388       1     456     464     468     457
CTETRA       389       1    2049     456    2050     457
CTETRA       390       1    3616    2467    2123    2471
CTETRA       391       1    1956      74    1970     469
CTETRA       392       1    2122    2471    2123     470
CTETRA       393       1    3615    2123    2122    2471
CTETRA       394       1    2452     185     105     471
CTETRA       395       1    2504    2505    2559     471
CTETRA       396       1    2480     189      65      69
CTETRA       397       1    3677    1310    2426    2446
CTETRA       398       1    1957      42    1958      44
CTETRA       399       1    2362    2363    2456     472
CTETRA       400       1    2517    2518     473     474
CTETRA       401       1    2104    2106    2105     475
CTETRA       402       1    3678    1269    1310    2446
CTETRA       403       1    1958      72    1973      44
CTETRA       404       1    2367    2368    2390      81
CTETRA       405       1    3494    2311     476     365
CTETRA       406       1    3808     380    3809     477
CTETRA       407       1    3502    3807    3503     478
CTETRA       408       1    1986     479      74      44
CTETRA       409       1    1987     140     480     479
CTETRA       410       1    1987     140     479      44
CTETRA       411       1    1971    1986      74      44
CTETRA       412       1    1712     481     180     181
CTETRA       413       1    1973      72     140      44
CTETRA       414       1    3094    1551    1555     482
CTETRA       415       1    2304     366    2310     365
CTETRA       416       1      74     479     483      44
CTETRA       417       1    3767    3768     484     485
CTETRA       418       1     486     487     488     485
CTETRA       419       1    3505    3506    2291     283
CTETRA       420       1     489     487     484     485
CTETRA       421       1     478      57     279     490
CTETRA       422       1    3117    3400    1723     365
CTETRA       423       1    3503    3504    2314      63
CTETRA       424       1    3404     491     489     485
CTETRA       425       1     488     489     491     485
CTETRA       426       1    3993    3768    3435     485
CTETRA       427       1    3993    3435    3434     485
CTETRA       428       1     492      64      63      56
CTETRA       429       1    3434    3435     488     485
CTETRA       430       1     493     494     495     496
CTETRA       431       1    3550    3551    2326     497
CTETRA       432       1    1906    1921    1920     498
CTETRA       433       1     250     243     499     496
CTETRA       434       1    1905     250     498     496
CTETRA       435       1     500     501     495     496
CTETRA       436       1     502     494     243     496
CTETRA       437       1    1921     498     500     496
CTETRA       438       1     503     504     505     506
CTETRA       439       1     507     374     240     377
CTETRA       440       1     309     230     374     375
CTETRA       441       1     362     450      13     377
CTETRA       442       1    3255    1574    1588      76
CTETRA       443       1    3559     508    3560     509
CTETRA       444       1    3243    1569    1568     510
CTETRA       445       1    3611    2099    2100    2423
CTETRA       446       1     380     478       2     279
CTETRA       447       1    3382    3507    3506     283
CTETRA       448       1    3504    3805    3505     282
CTETRA       449       1    3243      15     362     450
CTETRA       450       1     362     377      13     375
CTETRA       451       1    3107    2265    2272     511
CTETRA       452       1     510     309     374     377
CTETRA       453       1    1737    1494    1501     512
CTETRA       454       1    3864    1727    1729     513
CTETRA       455       1     514     327     329     513
CTETRA       456       1    1727     327     514     513
CTETRA       457       1    1729     515     329     268
CTETRA       458       1    1856    1871     516     517
CTETRA       459       1    3398    3399    3492    1721
CTETRA       460       1     515     329     330     513
CTETRA       461       1    3080    3081    1533     518
CTETRA       462       1    1733     269     519     520
CTETRA       463       1    3392    1733     519     520
CTETRA       464       1      43     521     483     469
CTETRA       465       1    1956     469      43      44
CTETRA       466       1     522     483     521     469
CTETRA       467       1    1953     522     523     469
CTETRA       468       1    3693    2594    2587     524
CTETRA       469       1    3245    1954     523     469
CTETRA       470       1    3245     523      43     469
CTETRA       471       1    2697     525    2700     526
CTETRA       472       1    3821    2223    2220    2700
CTETRA       473       1    3820    2700    2689     525
CTETRA       474       1    3103    2278     494     495
CTETRA       475       1     493     243     494     496
CTETRA       476       1     527     528     500     495
CTETRA       477       1    3454     529     530     495
CTETRA       478       1    3847    2164    2167    2664
CTETRA       479       1    3182    1500    1738    1501
CTETRA       480       1    3454    2284     527     495
CTETRA       481       1    2660     531    2661     532
CTETRA       482       1    3454     530    3455     495
CTETRA       483       1    2236     533    2604     484
CTETRA       484       1    2111    2513    2511     534
CTETRA       485       1    3708    2114    2117    2511
CTETRA       486       1    2515     535     536     534
CTETRA       487       1    2066    2070    2067     537
CTETRA       488       1     538     539     540     484
CTETRA       489       1    2103    2106    2104     475
CTETRA       490       1    3158    1579    1578     366
CTETRA       491       1    3404     484    3768     485
CTETRA       492       1    3405     541     542     484
CTETRA       493       1    2087    2536    2537     543
CTETRA       494       1    2534     459     461     264
CTETRA       495       1    2067    2068    2105     263
CTETRA       496       1    3520    3521    2295     544
CTETRA       497       1     542     541     539     484
CTETRA       498       1    3269     454    2065     455
CTETRA       499       1    2038    2054    2053     545
CTETRA       500       1     489     487     541     484
CTETRA       501       1    2099    2423    2417     392
CTETRA       502       1    1457     546     547      52
CTETRA       503       1    3404     489     484     485
CTETRA       504       1    3017     396     406     393
CTETRA       505       1    3016     406    3017     396
CTETRA       506       1     548     549     109     393
CTETRA       507       1     550     551     552     520
CTETRA       508       1     110     198      67     137
CTETRA       509       1     553     554     555     556
CTETRA       510       1    3479    3480    2269     557
CTETRA       511       1     558     326     321     324
CTETRA       512       1     559     407     108     393
CTETRA       513       1    2417    2423    2430     392
CTETRA       514       1    3081    2261    3082     560
CTETRA       515       1    1873    1874    1888     248
CTETRA       516       1    1874    1889    1888     248
CTETRA       517       1    1873    1888    1887     561
CTETRA       518       1     562     201     563     564
CTETRA       519       1    1919     298     565     299
CTETRA       520       1     407     399     108     393
CTETRA       521       1     566     567     549     393
CTETRA       522       1    3151    2303     568     434
CTETRA       523       1    2294     550     519     551
CTETRA       524       1     566     549     567     569
CTETRA       525       1    3209    1839    1840    1519
CTETRA       526       1     406     407     570     393
CTETRA       527       1    3018     406     570     393
CTETRA       528       1    3064    1519    1523     571
CTETRA       529       1    3594    1524    1523     208
CTETRA       530       1    1825     572    1840     571
CTETRA       531       1    3695    2501    3696     573
CTETRA       532       1    2577     420    2590     422
CTETRA       533       1    1770     574     575     576
CTETRA       534       1    2090    2091     392     422
CTETRA       535       1      49     577     578     579
CTETRA       536       1    2090     392     580     422
CTETRA       537       1     581     582     578      50
CTETRA       538       1    3110    1593     583     584
CTETRA       539       1    3699    2090    2589     422
CTETRA       540       1    3699    2589    2493     422
CTETRA       541       1    1786    1787    1801     585
CTETRA       542       1    1787    1802    1801     585
CTETRA       543       1    1772    1786     574     585
CTETRA       544       1    3118     503    1722      31
CTETRA       545       1    3022    3978    3023    3116
CTETRA       546       1    3812    3813    2600     586
CTETRA       547       1    3609    3610    2091    2424
CTETRA       548       1     402     587     405      37
CTETRA       549       1     174      59     588     173
CTETRA       550       1     181     588     589     173
CTETRA       551       1    2323     481    2325     590
CTETRA       552       1     181     174     173     171
CTETRA       553       1    3383    1715    3509     591
CTETRA       554       1     180     481     172     173
CTETRA       555       1    2323     180     481     172
CTETRA       556       1    3023    3364    3024     592
CTETRA       557       1    2055     545     593     594
CTETRA       558       1    2972    3357    3356    1691
CTETRA       559       1    2053     595     545     594
CTETRA       560       1    3260     593     305     594
CTETRA       561       1    3260     305     304     594
CTETRA       562       1     304     305     104     594
CTETRA       563       1    3257     104     595     594
CTETRA       564       1     596     597     336     165
CTETRA       565       1     598     163     157     159
CTETRA       566       1     599     333     596     166
CTETRA       567       1     161     600     163     165
CTETRA       568       1     161     163     600     162
CTETRA       569       1    3287    1593    1592     584
CTETRA       570       1    3286    1592    1589     577
CTETRA       571       1     332     601     600     165
CTETRA       572       1     332     600     161     165
CTETRA       573       1    3054    1498      17      51
CTETRA       574       1    1498      17      51     602
CTETRA       575       1    1551     603    1554     604
CTETRA       576       1    3095    3096    1554     603
CTETRA       577       1    1741      17    1498     602
CTETRA       578       1    1943    1554    1552     605
CTETRA       579       1    3055      50    1499     602
CTETRA       580       1    1938    1544    1546     606
CTETRA       581       1    3103     494     528     495
CTETRA       582       1    1641    1644     607     608
CTETRA       583       1     609     606     610     611
CTETRA       584       1    3055      51      50     602
CTETRA       585       1    1865      89      88     612
CTETRA       586       1    3214    1851    3215    1525
CTETRA       587       1    1742    1499    1743     602
CTETRA       588       1     283      59     613     588
CTETRA       589       1     181     440     614     588
CTETRA       590       1     281      77     283     588
CTETRA       591       1     280     591     614     588
CTETRA       592       1    3760     615    2612     616
CTETRA       593       1    3760    2611    2612     615
CTETRA       594       1    1238     353     355     617
CTETRA       595       1    1826    1510    1524     209
CTETRA       596       1    3049    1507     617     512
CTETRA       597       1    3952    2755    2175    2839
CTETRA       598       1    2684     618     619     620
CTETRA       599       1    2611     618    2684     620
CTETRA       600       1     615     431     618     620
CTETRA       601       1    2694     619     621     620
CTETRA       602       1    2175    2839    2755     622
CTETRA       603       1    2617    2716     623     624
CTETRA       604       1     486     625     626     627
CTETRA       605       1    3765     628     629     627
CTETRA       606       1     630     486     626     627
CTETRA       607       1    3438     629     631     627
CTETRA       608       1    3406     632     541     633
CTETRA       609       1    3955    3956     632     633
CTETRA       610       1    3406     541     123     633
CTETRA       611       1    3406     489     123     541
CTETRA       612       1    2767    2768    2774     634
CTETRA       613       1    2172    2821    2839     635
CTETRA       614       1    3406     123    3465     633
CTETRA       615       1    2692    2693    2695     636
CTETRA       616       1     637     638     541     633
CTETRA       617       1     638     123     541     633
CTETRA       618       1    3500       2    2312       4
CTETRA       619       1     290       6     639       3
CTETRA       620       1       2     279      58     289
CTETRA       621       1    2424    2442    2440     421
CTETRA       622       1    3902    2784    1396    2785
CTETRA       623       1       2     289       3       4
CTETRA       624       1    2312       2       1       4
CTETRA       625       1     640     506       7       3
CTETRA       626       1     290     639     291       3
CTETRA       627       1     290     291     272     289
CTETRA       628       1     278     291       3     289
CTETRA       629       1     278     291     640       3
CTETRA       630       1    3902    3903    1396    2784
CTETRA       631       1    3293    1615    1614     641
CTETRA       632       1    3784    1342    1339    2633
CTETRA       633       1    3783    1342    2633    2634
CTETRA       634       1    2102    2106     475     642
CTETRA       635       1    3749    1307    1271    2565
CTETRA       636       1    2105    2106      81     475
CTETRA       637       1    2554    2565    2564      65
CTETRA       638       1    2106    2109    2108     642
CTETRA       639       1    3974    2900    2899     583
CTETRA       640       1     643     644     645     334
CTETRA       641       1     599      40     333     166
CTETRA       642       1    3110    3974    2899     583
CTETRA       643       1    3274     197    1614     646
CTETRA       644       1    2899    2900    1219     583
CTETRA       645       1    3371    1700    3372     647
CTETRA       646       1     643     648     158     334
CTETRA       647       1     644     158     649     334
CTETRA       648       1    2197    2200    2796     650
CTETRA       649       1    2729     651    2730     307
CTETRA       650       1      40     648     645     334
CTETRA       651       1     649     158     157     334
CTETRA       652       1     346     260     652     343
CTETRA       653       1    2207    2211    2210     653
CTETRA       654       1    3931    2200    2795    2796
CTETRA       655       1    2492    2493    2590     419
CTETRA       656       1     346     654     512     347
CTETRA       657       1     655     656     652     347
CTETRA       658       1    2201     657    2205     650
CTETRA       659       1     346     512     355     347
CTETRA       660       1    3932    2757    2197    2796
CTETRA       661       1    1431    1432    1435     400
CTETRA       662       1     654     652     656     347
CTETRA       663       1    1937    1546    1547     528
CTETRA       664       1    3914    3915    1432    2739
CTETRA       665       1    2739     658     400     634
CTETRA       666       1     354     512     656     347
CTETRA       667       1     659     660     597     661
CTETRA       668       1     662     585     663     661
CTETRA       669       1     664     665     666     661
CTETRA       670       1    3801    2677    1427     621
CTETRA       671       1     662     667     668     661
CTETRA       672       1     667     666     665     661
CTETRA       673       1    2951     665     667     666
CTETRA       674       1     669     668     665     661
CTETRA       675       1    3846    2640    2164    2664
CTETRA       676       1    2099    2417     386     580
CTETRA       677       1    3001     670     671     382
CTETRA       678       1    2098    2099     386     580
CTETRA       679       1    2443    2444    2447     672
CTETRA       680       1    3700    2576    2589     580
CTETRA       681       1    3451     673    2279     607
CTETRA       682       1    2577    2585     420     580
CTETRA       683       1    2577     420    2585     674
CTETRA       684       1    2576     386    2585     580
CTETRA       685       1    3752    1278    3753    2581
CTETRA       686       1    2585     675     420     580
CTETRA       687       1    2577    2589     580     422
CTETRA       688       1    2418     420     675     580
CTETRA       689       1    3730    2497    3731     351
CTETRA       690       1    2472    2473    2475     676
CTETRA       691       1    3096    3097    1552     605
CTETRA       692       1    3737    2532    1301    2540
CTETRA       693       1     677     678     679     468
CTETRA       694       1    2050     456     468     457
CTETRA       695       1    2049    2064     456     457
CTETRA       696       1    3585    2035     678     468
CTETRA       697       1    3739    2522    1327    2527
CTETRA       698       1     455     468     464     457
CTETRA       699       1     545     464     595     468
CTETRA       700       1    2021     678     677     468
CTETRA       701       1    3585     678    2021     468
CTETRA       702       1    2475    2477     680     681
CTETRA       703       1    3613    2122    2469    2470
CTETRA       704       1     380     478     279     682
CTETRA       705       1     277     683     684     288
CTETRA       706       1     277     683     288     682
CTETRA       707       1     277     279     685     682
CTETRA       708       1    2122    2469    2470     386
CTETRA       709       1     685     279     686     682
CTETRA       710       1    2110    2117    2116     534
CTETRA       711       1     477     687     683     288
CTETRA       712       1    2515     688    2516     536
CTETRA       713       1    2508    2509     689     690
CTETRA       714       1    2389     691     692     693
CTETRA       715       1     477     288     683     682
CTETRA       716       1    2508    2512     690     535
CTETRA       717       1    3603    3604    2351     694
CTETRA       718       1    3602    2352     695     696
CTETRA       719       1     477     683     697     682
CTETRA       720       1     477     697     686     682
CTETRA       721       1     698     699     616     700
CTETRA       722       1     615     431     616     701
CTETRA       723       1    3421     702     228     703
CTETRA       724       1    3334    3482    3481     704
CTETRA       725       1    1440     431     395     700
CTETRA       726       1    3684    3685    1286    2353
CTETRA       727       1     616     699     701     700
CTETRA       728       1    1718     705     372     706
CTETRA       729       1    1721     372     476     706
CTETRA       730       1    3492     476     367     706
CTETRA       731       1    3496     409       6     707
CTETRA       732       1    3117    3496     365     707
CTETRA       733       1    1928    1929    1944     708
CTETRA       734       1    3103    1543    1547     528
CTETRA       735       1    1663     709    1673     710
CTETRA       736       1    3854    3552    3551     180
CTETRA       737       1     504       6     639     707
CTETRA       738       1     503     639      31     707
CTETRA       739       1    3118    1723     503     707
CTETRA       740       1     503     504     639     707
CTETRA       741       1    1723     365     503     707
CTETRA       742       1     711     291     639     506
CTETRA       743       1     639     506     291       3
CTETRA       744       1    2272     300     124     511
CTETRA       745       1    3063    1508    1503     712
CTETRA       746       1    3097    2269    2267     713
CTETRA       747       1     640     295       7     506
CTETRA       748       1    3502       2     478      63
CTETRA       749       1      55      58       2      63
CTETRA       750       1     714     478      57      63
CTETRA       751       1    1383      25     409     707
CTETRA       752       1    1878     715     716     717
CTETRA       753       1    1379      36      25      26
CTETRA       754       1    1640    1641     609     608
CTETRA       755       1     587      37     718      25
CTETRA       756       1    3329    1641    3450     609
CTETRA       757       1    3449    1641     719     608
CTETRA       758       1    2568    2575     720     721
CTETRA       759       1     409     587     718      25
CTETRA       760       1    1380      37     587      25
CTETRA       761       1    2230    2234    2233     542
CTETRA       762       1    2234    2235    2236     533
CTETRA       763       1    3956    3957    2752     722
CTETRA       764       1     723     628     724     725
CTETRA       765       1     298     726     246     727
CTETRA       766       1    1379      37    1380      25
CTETRA       767       1     538     542     728     539
CTETRA       768       1    3969    1507    1508     729
CTETRA       769       1     722     728     632     539
CTETRA       770       1    1852     178    1536     177
CTETRA       771       1    1868      93     175     177
CTETRA       772       1    3767     484     630     485
CTETRA       773       1    2200    2203    2795     650
CTETRA       774       1    1867     730     178     177
CTETRA       775       1    2209    2210    2213     731
CTETRA       776       1    2206    2207    2210     179
CTETRA       777       1    2794    2796    2795     650
CTETRA       778       1    3091     176      93     177
CTETRA       779       1    3834    2181    3835    2710
CTETRA       780       1    2243     178     229     177
CTETRA       781       1     730     175     229     177
CTETRA       782       1    2009    2025     679     101
CTETRA       783       1    2026    2042    2041     101
CTETRA       784       1    2009     677     144     101
CTETRA       785       1     677     679     103     101
CTETRA       786       1    2068    2529    2521     263
CTETRA       787       1    2510     689     690     475
CTETRA       788       1    1964    1979    1978      73
CTETRA       789       1     337     144     103     101
CTETRA       790       1     400     621     658     732
CTETRA       791       1    2692     733     734     636
CTETRA       792       1    3010    3011    1488     188
CTETRA       793       1    3045    1491    1492     451
CTETRA       794       1     337     144     735     103
CTETRA       795       1    1960    1975    1974      72
CTETRA       796       1    2011     144     337     101
CTETRA       797       1    2012     103    2027     101
CTETRA       798       1       2      58     279      63
CTETRA       799       1    2026    2027    2042     101
CTETRA       800       1    2010     144    2011     101
CTETRA       801       1    2010     102    2011     144
CTETRA       802       1    3295    1613    1612     195
CTETRA       803       1    3969    1508     736     729
CTETRA       804       1    3585    3586    2035     468
CTETRA       805       1    2564    2565    2574     187
CTETRA       806       1     204     210     737     738
CTETRA       807       1    3586    2051    3587     468
CTETRA       808       1    1611    1612    1613     739
CTETRA       809       1    3585    2021    2036     468
CTETRA       810       1    1612    1613     739     738
CTETRA       811       1    3296    2932    2931    1612
CTETRA       812       1    1612     196     195     738
CTETRA       813       1    1612     195    1613     738
CTETRA       814       1    2022    2023    2038     679
CTETRA       815       1     553     740     704     741
CTETRA       816       1     553     742     743     741
CTETRA       817       1     744      35     745     741
CTETRA       818       1     122      35     746     741
CTETRA       819       1     744     746      35     741
CTETRA       820       1     292     302     293     294
CTETRA       821       1     747     748     749     297
CTETRA       822       1    1997    2013    2012     337
CTETRA       823       1    1979    1980    1994     102
CTETRA       824       1     750     751     303     297
CTETRA       825       1     295     296     752     297
CTETRA       826       1     753     749     295     297
CTETRA       827       1     754     753     752     297
CTETRA       828       1     754     752     751     297
CTETRA       829       1     659     600     597     660
CTETRA       830       1     755     669     597     660
CTETRA       831       1     756     757     758     660
CTETRA       832       1     756     758     162     660
CTETRA       833       1    1768    1769    1783     759
CTETRA       834       1     760     761     608     762
CTETRA       835       1    2227    2751    2770     763
CTETRA       836       1    1877    1892    1891     715
CTETRA       837       1    2227    2230    2751     763
CTETRA       838       1    3451    3452     673     190
CTETRA       839       1     659     162     600     660
CTETRA       840       1     250     764     498     499
CTETRA       841       1     716     765     766     767
CTETRA       842       1    3490     768     609     610
CTETRA       843       1    3921    2227    2230    2751
CTETRA       844       1    1380    1383    1384      25
CTETRA       845       1    1846     769     770     771
CTETRA       846       1    2930    2931    1268     195
CTETRA       847       1    3065     571     772     773
CTETRA       848       1    3065    1267    1268     772
CTETRA       849       1     755     163     575     660
CTETRA       850       1     575     163     758     660
CTETRA       851       1    1808    1824    1823     199
CTETRA       852       1    1809    1810    1825     210
CTETRA       853       1    3920    2230    2233    2753
CTETRA       854       1     671     670     424     425
CTETRA       855       1     670     423     424     425
CTETRA       856       1    3594    1523    1840     572
CTETRA       857       1    1759    1760     774     775
CTETRA       858       1    3283    1597    1599      92
CTETRA       859       1    3300    1602    2940     776
CTETRA       860       1     671     381     670     425
CTETRA       861       1    3407     777     424     425
CTETRA       862       1    2095     424     426     425
CTETRA       863       1    3260     593    3261     305
CTETRA       864       1     778     779     780     305
CTETRA       865       1    3258     304     104     594
CTETRA       866       1    2970    3357    2971      99
CTETRA       867       1    2313      55       1       2
CTETRA       868       1    3043    3375    3376    1692
CTETRA       869       1     701     202     251     203
CTETRA       870       1    2816     781    2827     782
CTETRA       871       1     783     699     701     203
CTETRA       872       1     499     783     251     203
CTETRA       873       1    3318    1632     702     703
CTETRA       874       1    2747    2750    2749      37
CTETRA       875       1     553     556     704     784
CTETRA       876       1     563     203     785     564
CTETRA       877       1     786     787     788     789
CTETRA       878       1    3300    1604     776      60
CTETRA       879       1    2941    1602    1600     790
CTETRA       880       1    3806    2608    2609     791
CTETRA       881       1     792     699     785     203
CTETRA       882       1     499     785     699     203
CTETRA       883       1     793     376     794     795
CTETRA       884       1    1737    1501    1738     654
CTETRA       885       1    1500     654     796     797
CTETRA       886       1    3180    1494    1736    1507
CTETRA       887       1     603     604     798     795
CTETRA       888       1     799     798     800     795
CTETRA       889       1     733     801     636     732
CTETRA       890       1    1447    1448     119      52
CTETRA       891       1     802     799     803     795
CTETRA       892       1     804     801     733     732
CTETRA       893       1     801     658     636     732
CTETRA       894       1     805     376     803     795
CTETRA       895       1    2685     733    2692     732
CTETRA       896       1    2171     806     531     532
CTETRA       897       1     760     717     807     808
CTETRA       898       1     809     762      82     807
CTETRA       899       1     810     717      83     807
CTETRA       900       1     809      82     811     807
CTETRA       901       1    3503    3806    3504     714
CTETRA       902       1    3793    1406    3794    2724
CTETRA       903       1    3793    2724    2720     417
CTETRA       904       1     812     813     814     815
CTETRA       905       1    3561    3879     277     685
CTETRA       906       1    1357    2631    1360     781
CTETRA       907       1    3779    1357    1354    2631
CTETRA       908       1     816     784     376     794
CTETRA       909       1     228     175     817     703
CTETRA       910       1    3742    2506    1330    2560
CTETRA       911       1    3743    1330    1317    2560
CTETRA       912       1     702     818     176     703
CTETRA       913       1     702     176     228     703
CTETRA       914       1    1263     819     820     209
CTETRA       915       1    3523    2294    2293     519
CTETRA       916       1    1503     821     822     823
CTETRA       917       1    1634     228     784     703
CTETRA       918       1    1750    1503    1508     712
CTETRA       919       1    1632     376     702     703
CTETRA       920       1    3335    3480    3336     784
CTETRA       921       1    3478     793    1633     557
CTETRA       922       1    3298    2936    2935     824
CTETRA       923       1    3297    3298    2935    1608
CTETRA       924       1    2935    2936    1260     205
CTETRA       925       1    1632    1633     376     703
CTETRA       926       1    3916    3917    1438    2884
CTETRA       927       1    2739    2767     658     634
CTETRA       928       1     609     607     606     611
CTETRA       929       1     761     825     826     611
CTETRA       930       1    2741    2766    2742     804
CTETRA       931       1     761     826     827     611
CTETRA       932       1    1390    2864    2762     828
CTETRA       933       1    3899    1387    2863    2864
CTETRA       934       1    3899    1387    1336    2863
CTETRA       935       1    1335     829     830     828
CTETRA       936       1     826     607     827     611
CTETRA       937       1     768      34     762     611
CTETRA       938       1    2680    2681    2697     731
CTETRA       939       1    1419     415    1420     831
CTETRA       940       1     609     762     608     611
CTETRA       941       1     832     751     750     297
CTETRA       942       1     325     326     833     751
CTETRA       943       1    2805     834    2807     835
CTETRA       944       1    1430    1431    1434     621
CTETRA       945       1     252     325     254     751
CTETRA       946       1    1430    1434    1433     431
CTETRA       947       1    2569    2574    2573     194
CTETRA       948       1    1433    1434    1437     431
CTETRA       949       1    1430    2610    2678     620
CTETRA       950       1    2611     615     618     620
CTETRA       951       1    3880     836    2754     837
CTETRA       952       1     705     328     372     706
CTETRA       953       1     832     838     750     751
CTETRA       954       1    2159    2163    2162     839
CTETRA       955       1    2822    2836    2838     218
CTETRA       956       1    2092    2493    2093     426
CTETRA       957       1     838     254     170     751
CTETRA       958       1    2639     840    2662     218
CTETRA       959       1    2654    2662    2663     697
CTETRA       960       1    2653    2663    2661     806
CTETRA       961       1     838     170     750     751
CTETRA       962       1     170     303     750     751
CTETRA       963       1    3963    3964     395     783
CTETRA       964       1    3441     201     428     563
CTETRA       965       1    2568    2569    2583     720
CTETRA       966       1    3444     841     792     699
CTETRA       967       1    1301    2540    2532     842
CTETRA       968       1    3121      95    1466      96
CTETRA       969       1    1466      95      99      96
CTETRA       970       1      94      98     117      97
CTETRA       971       1    3565     270    3875     843
CTETRA       972       1    1333    2517    2527     473
CTETRA       973       1    1459     100     238      96
CTETRA       974       1    3168    2338    3169     844
CTETRA       975       1    2369     845    2391     691
CTETRA       976       1    2522    2527    2528     845
CTETRA       977       1    1321    1327    1322     845
CTETRA       978       1    1666     846     753     847
CTETRA       979       1    1771    1772    1786     574
CTETRA       980       1    3738    1327    2522     848
CTETRA       981       1    3738    1327    3739    2522
CTETRA       982       1    2167     531    2660     532
CTETRA       983       1    3806    3807    2608     791
CTETRA       984       1      99      96      95      97
CTETRA       985       1    3170    1666     847     411
CTETRA       986       1    2515     536    2516     534
CTETRA       987       1      57     279      58      63
CTETRA       988       1    3560    3561    2340     509
CTETRA       989       1    2114     536    2115     534
CTETRA       990       1    2114    2516     536     534
CTETRA       991       1    3163    1574    1581      87
CTETRA       992       1    3997    3805    3872     282
CTETRA       993       1    2512     535    2515     534
CTETRA       994       1    2663     806     840     532
CTETRA       995       1    2374     536     535     534
CTETRA       996       1    2110     690    2111     534
CTETRA       997       1    3397    3398    3491     849
CTETRA       998       1    2512    2513     690     534
CTETRA       999       1    3157    1578    1576     850
CTETRA      1000       1    2111    2511    2117     534
CTETRA      1001       1    2989    3347     851     852
CTETRA      1002       1    2989    1450     317     851
CTETRA      1003       1     317     851     216     852
CTETRA      1004       1    2987     318    3348     852
CTETRA      1005       1    3329    3490    1640     609
CTETRA      1006       1    3490    3999    2281     609
CTETRA      1007       1    3588    1508    1507     729
CTETRA      1008       1    3101    2280    2281     610
CTETRA      1009       1    3309    1643    1641     608
CTETRA      1010       1    3348     318    1706     852
CTETRA      1011       1    2988    1444    1446     852
CTETRA      1012       1    3127    1446    1444     853
CTETRA      1013       1    2151    2859    2154     311
CTETRA      1014       1     242     249     243     244
CTETRA      1015       1     854     241     243     251
CTETRA      1016       1     493     499     783     243
CTETRA      1017       1     499     243     249     251
CTETRA      1018       1     854     243     783     251
CTETRA      1019       1     826     527     500     501
CTETRA      1020       1    1864      83     811     612
CTETRA      1021       1    2445    2448     672     338
CTETRA      1022       1     855     737     646     788
CTETRA      1023       1     719     856     608     808
CTETRA      1024       1     857     737     855     788
CTETRA      1025       1     858     859     737     860
CTETRA      1026       1     861     860     862     863
CTETRA      1027       1    2757    2796    2794     650
CTETRA      1028       1    3933    2757    2872     864
CTETRA      1029       1     861     646     860     863
CTETRA      1030       1    3590     855    1780     862
CTETRA      1031       1    2188    2191    2872     864
CTETRA      1032       1     702     865     176     818
CTETRA      1033       1    3273    1616    2885     866
CTETRA      1034       1     175     176     818     703
CTETRA      1035       1     867     868     865     818
CTETRA      1036       1    2444    2445     672     720
CTETRA      1037       1    2639    2640    2663     840
CTETRA      1038       1    3317    3421     228     703
CTETRA      1039       1    2165     869     840     532
CTETRA      1040       1    2167    2168    2171     532
CTETRA      1041       1    3317     228    1634     703
CTETRA      1042       1     836     622     837     490
CTETRA      1043       1    2172    2839    2175     622
CTETRA      1044       1    3713    2068    3714    2529
CTETRA      1045       1     867     376     803     818
CTETRA      1046       1     702     376     818     703
CTETRA      1047       1    3842    2152    3843    2650
CTETRA      1048       1     870     215     871     872
CTETRA      1049       1     873     215     592     872
CTETRA      1050       1    3115     874     875     872
CTETRA      1051       1    3941    2142    2856    2857
CTETRA      1052       1     876     191     370     192
CTETRA      1053       1     385     777     192     381
CTETRA      1054       1     370     192     191     132
CTETRA      1055       1     876     777     191     192
CTETRA      1056       1     191     877     878     193
CTETRA      1057       1    2970      99    1466      95
CTETRA      1058       1    1455    1466      99      96
CTETRA      1059       1    3699    2092    2090     422
CTETRA      1060       1      98     239     235      97
CTETRA      1061       1    2002    2017     480     135
CTETRA      1062       1    1992    1993    2007     677
CTETRA      1063       1    1455      99     100      96
CTETRA      1064       1    1661      95     115     114
CTETRA      1065       1    1465     879      95     114
CTETRA      1066       1    2648    2652    2651     880
CTETRA      1067       1    3578    1901    1916      79
CTETRA      1068       1    1554     604     603     605
CTETRA      1069       1    3473    2276    2274     881
CTETRA      1070       1    3579    1555    1945     482
CTETRA      1071       1     879     134     116      95
CTETRA      1072       1    3339    1630     802     799
CTETRA      1073       1    3578    3579    1930     482
CTETRA      1074       1    1635    1636     704     740
CTETRA      1075       1     554     556     882     713
CTETRA      1076       1    3757    1284    3758    2501
CTETRA      1077       1     883      98     232     235
CTETRA      1078       1    1457      52     884     232
CTETRA      1079       1    2264     885    2283     122
CTETRA      1080       1      98     233     232     235
CTETRA      1081       1    3482    3483    2268     704
CTETRA      1082       1     883     232     240     235
CTETRA      1083       1    3416     886    1636     740
CTETRA      1084       1     546     887     232     234
CTETRA      1085       1    1903     888     298     125
CTETRA      1086       1    1902     888     125     889
CTETRA      1087       1     546     887      52     232
CTETRA      1088       1     278     640      58       3
CTETRA      1089       1     844     640     291     506
CTETRA      1090       1     408     844     640     291
CTETRA      1091       1    1858    1873    1872     890
CTETRA      1092       1     891      28     803     892
CTETRA      1093       1     516     369     893     889
CTETRA      1094       1     894     895     896     897
CTETRA      1095       1    1785    1786    1800     755
CTETRA      1096       1     408     270     711     291
CTETRA      1097       1    3973    2951    1594     666
CTETRA      1098       1    3917    2882    1438    2884
CTETRA      1099       1    1770    1785    1784     575
CTETRA      1100       1    2384    2390    2388     265
CTETRA      1101       1    1763    1764    1779     898
CTETRA      1102       1    2920    2921    1242      85
CTETRA      1103       1    1239    1241     197     736
CTETRA      1104       1    1764    1765    1780     899
CTETRA      1105       1    1434    1435    1438     400
CTETRA      1106       1     858     822     821     823
CTETRA      1107       1     290     639     272     291
CTETRA      1108       1    1748    1764    1763     823
CTETRA      1109       1     270     639     711     291
CTETRA      1110       1     879     116     134     112
CTETRA      1111       1    1685     112     900     901
CTETRA      1112       1    3111    3964     530     700
CTETRA      1113       1    1685    1687     902     112
CTETRA      1114       1    1688     903    1690     112
CTETRA      1115       1     574      17     757     758
CTETRA      1116       1     575     598     904     758
CTETRA      1117       1    1622    1626    1623     905
CTETRA      1118       1     321     906     329     551
CTETRA      1119       1    3602     907    3603     696
CTETRA      1120       1     325     302     752     324
CTETRA      1121       1     558     323     908     324
CTETRA      1122       1     909     321     326     551
CTETRA      1123       1     558     326     302     910
CTETRA      1124       1    3407     876     777     191
CTETRA      1125       1     432     191     777     192
CTETRA      1126       1     188     132     193     131
CTETRA      1127       1     911     188     147     191
CTETRA      1128       1    3281    2912    2911    1601
CTETRA      1129       1    1683     147     370     191
CTETRA      1130       1     106     109     382     383
CTETRA      1131       1    2069    2070    2072     263
CTETRA      1132       1    2811     912     834     913
CTETRA      1133       1    2771    2812     763     913
CTETRA      1134       1     912     914     834     913
CTETRA      1135       1    2771     763     912     913
CTETRA      1136       1     914     915     525     913
CTETRA      1137       1    3226    3227    1944    1554
CTETRA      1138       1    2094     423     426     424
CTETRA      1139       1    3056    1496    1499      50
CTETRA      1140       1     916      50      49      51
CTETRA      1141       1    3715    2069    2072    2526
CTETRA      1142       1     583      49      51     757
CTETRA      1143       1    3186    1742    1498    1499
CTETRA      1144       1    2640    2663     840     532
CTETRA      1145       1    3036    3037    1483     647
CTETRA      1146       1    2661     806    2663     532
CTETRA      1147       1    3040    1485     507     237
CTETRA      1148       1    3034    3371    3035    1702
CTETRA      1149       1    3407     424    2095     425
CTETRA      1150       1    3407     777    3408     424
CTETRA      1151       1    1560    1561     917     231
CTETRA      1152       1    3145    1569     308     510
CTETRA      1153       1    3596    2358    2359     423
CTETRA      1154       1    3596     423    2359     424
CTETRA      1155       1    3605    3595    2359     424
CTETRA      1156       1    3596     671     670     424
CTETRA      1157       1    3408    3595    3605     424
CTETRA      1158       1      46     292      78      77
CTETRA      1159       1     918     174      59      77
CTETRA      1160       1     566     919     152     549
CTETRA      1161       1     174      77     440     588
CTETRA      1162       1      46     440     292      77
CTETRA      1163       1      75     918      59      77
CTETRA      1164       1    2493    2589    2590     422
CTETRA      1165       1     298     726     727     920
CTETRA      1166       1     625     626     726     921
CTETRA      1167       1     625     726     626     627
CTETRA      1168       1    3911    3912    1423    2775
CTETRA      1169       1    3912    1423    2775    2777
CTETRA      1170       1    2773     658     922     923
CTETRA      1171       1     924     626     726     627
CTETRA      1172       1    2067    2070     263     537
CTETRA      1173       1    3469     925      48     926
CTETRA      1174       1    1622     905    1629     926
CTETRA      1175       1    2431    2441     423     433
CTETRA      1176       1    3813    2598    2600     587
CTETRA      1177       1     478     686     279     682
CTETRA      1178       1     292     303     441     293
CTETRA      1179       1    3770    2598    1382     587
CTETRA      1180       1     927     413     503      31
CTETRA      1181       1     313     305     104     293
CTETRA      1182       1    3262     780     310     305
CTETRA      1183       1    3769    3814    3117    1382
CTETRA      1184       1    3117    3118    1383     707
CTETRA      1185       1    3888    1364    1367    2832
CTETRA      1186       1    3887    3888    1367    2832
CTETRA      1187       1    1367    1371    1370     928
CTETRA      1188       1    3699    2493    2092     422
CTETRA      1189       1    3262     778    3263     780
CTETRA      1190       1    2616    2627    2617     929
CTETRA      1191       1    3262     778     780     305
CTETRA      1192       1    2627    2628    2634     930
CTETRA      1193       1    2018     931     135     678
CTETRA      1194       1    3669    3670    1318    2482
CTETRA      1195       1    2429     420     674     675
CTETRA      1196       1    1339    2633    1342     830
CTETRA      1197       1    2018     135    2019     678
CTETRA      1198       1    2016     931    2031     735
CTETRA      1199       1    2032    2048    2047     931
CTETRA      1200       1    2016     135    2017     931
CTETRA      1201       1     931     464     735     678
CTETRA      1202       1    3669    1316    2450    2482
CTETRA      1203       1    2033     456     931     678
CTETRA      1204       1     932     649     644     158
CTETRA      1205       1    3610    2423    2091    2424
CTETRA      1206       1    2895     932     933     158
CTETRA      1207       1      41     333     157     166
CTETRA      1208       1    3754    1292    3755    2580
CTETRA      1209       1     648     934     158     166
CTETRA      1210       1     156     796     932     158
CTETRA      1211       1     156     157     796     158
CTETRA      1212       1    2895     156     158     159
CTETRA      1213       1     156     598     157     159
CTETRA      1214       1     157     166     158     159
CTETRA      1215       1    3684    1286    1281    2353
CTETRA      1216       1    2895     158     933     159
CTETRA      1217       1     933     158     934     159
CTETRA      1218       1     935      18     576     758
CTETRA      1219       1    3685    2351    1287     936
CTETRA      1220       1     575     163     759     157
CTETRA      1221       1     160     937     598     162
CTETRA      1222       1     598     758     163     162
CTETRA      1223       1     575     598     163     157
CTETRA      1224       1     937     935     156     598
CTETRA      1225       1     450     240     449      13
CTETRA      1226       1      15     450     449      13
CTETRA      1227       1    1316    2482    1318     105
CTETRA      1228       1     117     449     240      13
CTETRA      1229       1    3064    3065    1519     571
CTETRA      1230       1    2929    2930    1268     204
CTETRA      1231       1    2931    1257    1268     195
CTETRA      1232       1     308     309     377     375
CTETRA      1233       1     362     308     377     375
CTETRA      1234       1    3053    1495     935      18
CTETRA      1235       1    2900    1225    1219     583
CTETRA      1236       1    3682    3683    1290    2350
CTETRA      1237       1     510     507     450     377
CTETRA      1238       1       8      13     227     375
CTETRA      1239       1    3054    1225    3055      51
CTETRA      1240       1     221     227     154     375
CTETRA      1241       1    2898    2899    1219     756
CTETRA      1242       1    1740     935    1754     797
CTETRA      1243       1    3642     938     939     940
CTETRA      1244       1     221     154     374     375
CTETRA      1245       1    3288    1593    2901     583
CTETRA      1246       1     117     240     154      13
CTETRA      1247       1     941     824      29     942
CTETRA      1248       1    3576      28      27     943
CTETRA      1249       1    3324    3431    1626     944
CTETRA      1250       1     945     199     946     942
CTETRA      1251       1    3329    1640    1641     609
CTETRA      1252       1    3450    2279    2281     607
CTETRA      1253       1     199     947     946     942
CTETRA      1254       1    1937     500     826     528
CTETRA      1255       1    3612    3613    2120    2469
CTETRA      1256       1    3489    3490    2280     768
CTETRA      1257       1     824      86      29     942
CTETRA      1258       1    1938     610    1544     606
CTETRA      1259       1     759     649     157     948
CTETRA      1260       1    3450    2281    3999     609
CTETRA      1261       1    3088      89    1529     612
CTETRA      1262       1     949     652     649     948
CTETRA      1263       1     950     652     654     649
CTETRA      1264       1    3683    1281    2350    2353
CTETRA      1265       1     759     649     904     157
CTETRA      1266       1    3330    3489    3488     768
CTETRA      1267       1     950     654     796     649
CTETRA      1268       1    1438    2884    2882     395
CTETRA      1269       1    2683     636    2691     922
CTETRA      1270       1    2685    2686    2692     733
CTETRA      1271       1     951     924     539     727
CTETRA      1272       1    3762    2685    2684     618
CTETRA      1273       1    2879     930     952     953
CTETRA      1274       1    2622    2644     954     955
CTETRA      1275       1     904     649     796     157
CTETRA      1276       1    3062    3063    1503     822
CTETRA      1277       1     956     152     919     215
CTETRA      1278       1     870     871     215     225
CTETRA      1279       1     957     884      52     232
CTETRA      1280       1    2349    2352    2353     340
CTETRA      1281       1    1456    1457     884     232
CTETRA      1282       1    3125    1441      52     884
CTETRA      1283       1    1662     884     883      98
CTETRA      1284       1    2209    2810     731     167
CTETRA      1285       1    3123     884    1662      98
CTETRA      1286       1    3929    3930    2203    2797
CTETRA      1287       1    1456     884    1458     232
CTETRA      1288       1    2788     651     307     958
CTETRA      1289       1    2206    2210    2209     179
CTETRA      1290       1    1441    1457      52     884
CTETRA      1291       1    1457     546      52     232
CTETRA      1292       1    3927    3928    2209    2810
CTETRA      1293       1    2226    2689     915     525
CTETRA      1294       1     959     718     272     639
CTETRA      1295       1    1376    2749     404      37
CTETRA      1296       1    1373    2749    2748     404
CTETRA      1297       1     224     225     153     217
CTETRA      1298       1     960     225     384     155
CTETRA      1299       1    3767    3768    2604     484
CTETRA      1300       1     224     221     227     155
CTETRA      1301       1    3980    3119    3567      26
CTETRA      1302       1     317     216     225     223
CTETRA      1303       1     960     224     317     225
CTETRA      1304       1    3883    2747    1379      26
CTETRA      1305       1     121     315     222     223
CTETRA      1306       1    2850    2853     954     212
CTETRA      1307       1    3404    3815    3768    2236
CTETRA      1308       1     954     212     311     880
CTETRA      1309       1     316     221     314     223
CTETRA      1310       1    3842    2152    2650    2651
CTETRA      1311       1     316     221     224     155
CTETRA      1312       1    3711    2112    2510    2513
CTETRA      1313       1    2110    2111    2117     534
CTETRA      1314       1     846     328     330     752
CTETRA      1315       1    3709    2111    3710    2513
CTETRA      1316       1    2487    2490    2489     961
CTETRA      1317       1    2534     461    2546     962
CTETRA      1318       1     330     325     329     255
CTETRA      1319       1     963     330     327     513
CTETRA      1320       1     327     330     329     513
CTETRA      1321       1    2334     257     846     513
CTETRA      1322       1    2332     846     963     513
CTETRA      1323       1    3815    2236    3816    2604
CTETRA      1324       1    3401    2085    2084     358
CTETRA      1325       1    3650    2084     320     358
CTETRA      1326       1    3666    3667    1331    2457
CTETRA      1327       1      38     964     645     360
CTETRA      1328       1     351     359     261     360
CTETRA      1329       1    3650    2084    2345     320
CTETRA      1330       1    2367    2376    2368      81
CTETRA      1331       1    2368    2372    2369     689
CTETRA      1332       1    2068    2104    2105     475
CTETRA      1333       1    2367    2378    2377     642
CTETRA      1334       1    2509    2520    2519     689
CTETRA      1335       1    2082     320    2084     358
CTETRA      1336       1    2101    2102    2110     690
CTETRA      1337       1    2082     359     320     358
CTETRA      1338       1    2508    2509    2519     689
CTETRA      1339       1     170     965     436     833
CTETRA      1340       1     253     966     965     967
CTETRA      1341       1     968     969     966     965
CTETRA      1342       1     568     544     970     286
CTETRA      1343       1    1673     971     710     590
CTETRA      1344       1    3564    3565    2341     270
CTETRA      1345       1    2167    2660    2664     532
CTETRA      1346       1    1734     968     965     972
CTETRA      1347       1     432     877     192     381
CTETRA      1348       1     385     382     671     381
CTETRA      1349       1     385     381     192     383
CTETRA      1350       1     876     385     777     192
CTETRA      1351       1     670     381     398     425
CTETRA      1352       1    3398    3491     849     706
CTETRA      1353       1    3398    1721    3492     706
CTETRA      1354       1    3396    3397    3531     849
CTETRA      1355       1    3407     191     432     878
CTETRA      1356       1    3407     876    3408     777
CTETRA      1357       1    3100    3101    1544     610
CTETRA      1358       1     704     745     973     741
CTETRA      1359       1     445     426     974     419
CTETRA      1360       1     201     203     563     564
CTETRA      1361       1     395     701     783     700
CTETRA      1362       1    3458     975     429     854
CTETRA      1363       1     783     701     699     700
CTETRA      1364       1    2533    2546    2545     962
CTETRA      1365       1    3843    2152    2155    2650
CTETRA      1366       1    2152    2156    2155     976
CTETRA      1367       1     975     783     395     701
CTETRA      1368       1     977     395     431     701
CTETRA      1369       1     431     616     701     700
CTETRA      1370       1    3622    2113    2128    2365
CTETRA      1371       1     977     701     618     202
CTETRA      1372       1    3636    2089    2077    2405
CTETRA      1373       1    1471    1472     978     231
CTETRA      1374       1    3407    3408    2095     424
CTETRA      1375       1    2068    2521    2104     475
CTETRA      1376       1    2078    2346    2083     979
CTETRA      1377       1    2067    2105    2107     263
CTETRA      1378       1    3587    2051    3255     455
CTETRA      1379       1     980     231     230     227
CTETRA      1380       1    3143    1473     980     231
CTETRA      1381       1    3031     978     981     231
CTETRA      1382       1    2435     338     340     341
CTETRA      1383       1     982     338     339     340
CTETRA      1384       1    2452    2453    2478     185
CTETRA      1385       1    3697    2095    2093     426
CTETRA      1386       1    2385    2394     983     266
CTETRA      1387       1     984     985     982     340
CTETRA      1388       1    3584    3585    2020     678
CTETRA      1389       1    2349    2435     985     340
CTETRA      1390       1    2806     731    2810     167
CTETRA      1391       1     982     340     339     986
CTETRA      1392       1     427     398     397     394
CTETRA      1393       1     397     398     974     399
CTETRA      1394       1     432     381     425     394
CTETRA      1395       1     398     425     381     394
CTETRA      1396       1     401     987     398     399
CTETRA      1397       1     401     399     398     394
CTETRA      1398       1    2219     167     834     913
CTETRA      1399       1    3871    3872     988     989
CTETRA      1400       1    2021    2037    2036     468
CTETRA      1401       1    3872    1717     283     989
CTETRA      1402       1     990     989     988      59
CTETRA      1403       1     990     991     988     989
CTETRA      1404       1    3871     988     991     989
CTETRA      1405       1    2009    2010    2025     101
CTETRA      1406       1    2019    2020    2035     678
CTETRA      1407       1    1963    1964    1978      66
CTETRA      1408       1    2466     470     386     721
CTETRA      1409       1    3870     991     992     989
CTETRA      1410       1    1978    1993    1992     143
CTETRA      1411       1    1716    1717     989     613
CTETRA      1412       1    3401    2084    3650     358
CTETRA      1413       1    3870     992    1716     989
CTETRA      1414       1     370     191     147     132
CTETRA      1415       1    3578    1930    1915      79
CTETRA      1416       1     800     993      79     482
CTETRA      1417       1     414     370     151     132
CTETRA      1418       1    2476    2480     680      65
CTETRA      1419       1    3243    1956    3244      43
CTETRA      1420       1    3225    1944    1945    1551
CTETRA      1421       1    3962     975    3963     977
CTETRA      1422       1     402     405     404      37
CTETRA      1423       1    1952    1953    1967     522
CTETRA      1424       1    1876    1891    1890     994
CTETRA      1425       1    3444    2252     792     841
CTETRA      1426       1     130     192     193     383
CTETRA      1427       1     414     134     132     901
CTETRA      1428       1    1846    1530    1847     771
CTETRA      1429       1      12     137     138     133
CTETRA      1430       1    3442     428     200     792
CTETRA      1431       1    3112    1645    1646     529
CTETRA      1432       1    2808     834     731     167
CTETRA      1433       1     138     137     130     133
CTETRA      1434       1     388     130     139     383
CTETRA      1435       1    3173    2334    3174     257
CTETRA      1436       1     414     379     370     134
CTETRA      1437       1    1822    1823    1838     946
CTETRA      1438       1    1837    1838    1520     946
CTETRA      1439       1    3066     947    1260     206
CTETRA      1440       1    1807    1808    1823     945
CTETRA      1441       1    1820     995    1835     996
CTETRA      1442       1    2913     997    1603      21
CTETRA      1443       1    1803    1804    1818     998
CTETRA      1444       1    2332     846     410     963
CTETRA      1445       1    3055    3056    1499      50
CTETRA      1446       1    2564    2574    2575     680
CTETRA      1447       1     990      57     991     509
CTETRA      1448       1     115     379     134     130
CTETRA      1449       1     115     134     138     130
CTETRA      1450       1    2806    2808     731     167
CTETRA      1451       1     838     170     999     169
CTETRA      1452       1     709     184     172     918
CTETRA      1453       1    3400    3494    1719     365
CTETRA      1454       1    2328    2329     168     999
CTETRA      1455       1    2476     680     187      65
CTETRA      1456       1    3177    3178    1677     999
CTETRA      1457       1    2425     433    2442     421
CTETRA      1458       1    3338    3475    3474     802
CTETRA      1459       1     696    1000    1001     986
CTETRA      1460       1    3608    2096    2425     421
CTETRA      1461       1    2440     421     420     392
CTETRA      1462       1    2440    2442     444     421
CTETRA      1463       1    2091    2092     421     422
CTETRA      1464       1    3608    2425    2424     421
CTETRA      1465       1    2091     421    2424     392
CTETRA      1466       1    3141    1476    1470    1002
CTETRA      1467       1    2636    1003    2666    1004
CTETRA      1468       1    1362    1005    1003    1004
CTETRA      1469       1    3926    2212    2215     167
CTETRA      1470       1    3118    1722    3119      31
CTETRA      1471       1    1368     928    1005    1004
CTETRA      1472       1    1368    1372     928    1004
CTETRA      1473       1    3323    3324    3431    1626
CTETRA      1474       1    1665     753     749     847
CTETRA      1475       1    1372    2658     928    1004
CTETRA      1476       1    2658    2666     928    1004
CTETRA      1477       1    1006     253     257     255
CTETRA      1478       1     254     833     325     255
CTETRA      1479       1     199     947     773     946
CTETRA      1480       1    3276    2922    2921    1613
CTETRA      1481       1    1006     269     253     255
CTETRA      1482       1    1007     253     269     967
CTETRA      1483       1    3175     253    2319     969
CTETRA      1484       1    1008    1009      92     128
CTETRA      1485       1     253     966     969     965
CTETRA      1486       1    3734    2488    2489    1010
CTETRA      1487       1    2836     220    2838     218
CTETRA      1488       1    3724    2489    1011    1010
CTETRA      1489       1    3733    3734    2489    1010
CTETRA      1490       1     961    1010     287    1012
CTETRA      1491       1    2488     961    2489    1010
CTETRA      1492       1    1011    1010     961    1012
CTETRA      1493       1    2384     265    2388     266
CTETRA      1494       1    3252    1948    1947     113
CTETRA      1495       1    3172    2333    2332     410
CTETRA      1496       1    3007    3967    1464     414
CTETRA      1497       1    1650    1657    1655     379
CTETRA      1498       1    3135    1558    1571     198
CTETRA      1499       1    1761      61    1013    1014
CTETRA      1500       1    3058    1015    1497     775
CTETRA      1501       1    1497     775    1015    1014
CTETRA      1502       1    1745     775    1497    1014
CTETRA      1503       1    3240     110    1016     111
CTETRA      1504       1    1493    1497    1015    1014
CTETRA      1505       1    3059    1015      61    1014
CTETRA      1506       1    1746    1505      61    1014
CTETRA      1507       1    3185    3186    1741    1498
CTETRA      1508       1     644     645     964     360
CTETRA      1509       1     342     644     652     948
CTETRA      1510       1     361     644     260     360
CTETRA      1511       1    3020    3021    1480     569
CTETRA      1512       1    1680     147     186     132
CTETRA      1513       1    1856     516     894     895
CTETRA      1514       1    1017    1018    1019     407
CTETRA      1515       1    1017     907     695     559
CTETRA      1516       1     361     391     260     644
CTETRA      1517       1    3115    3116    1284     573
CTETRA      1518       1    3019    1480    1477     569
CTETRA      1519       1    1284    1001     573    1000
CTETRA      1520       1    3000     670    3001     382
CTETRA      1521       1    1283    1285    1001     986
CTETRA      1522       1    3132    1452    1453    1020
CTETRA      1523       1    3001     671     385     382
CTETRA      1524       1     401     670     382     381
CTETRA      1525       1     108     382     109     381
CTETRA      1526       1    2030    2046    2045     735
CTETRA      1527       1    3139     956    1566     566
CTETRA      1528       1    2019     135    2020     678
CTETRA      1529       1     364     566     956     152
CTETRA      1530       1    1442    1453     385     387
CTETRA      1531       1    1942    1943    1552     605
CTETRA      1532       1    1020     108     401     382
CTETRA      1533       1    2610    2694    2678     620
CTETRA      1534       1    2694     619    2695     621
CTETRA      1535       1     109     877     381     383
CTETRA      1536       1    1431    1435    1434     400
CTETRA      1537       1    1020     106     382     387
CTETRA      1538       1    3456     975     854     783
CTETRA      1539       1    1435    2884    1438     400
CTETRA      1540       1     315    1021     230     378
CTETRA      1541       1    3390    3391    3521     544
CTETRA      1542       1     314     957     315     221
CTETRA      1543       1    2717    2721    2720    1022
CTETRA      1544       1    1407    1408    1411    1022
CTETRA      1545       1    2730     307     651     958
CTETRA      1546       1     755     596      41     165
CTETRA      1547       1    1317    2560    1330     105
CTETRA      1548       1     120     121     315    1021
CTETRA      1549       1     119     120     315    1021
CTETRA      1550       1    1447     314     119     121
CTETRA      1551       1     119     121     314     315
CTETRA      1552       1    3744    1317    2555    2560
CTETRA      1553       1    2451    2481    2482     105
CTETRA      1554       1     567     570     524     559
CTETRA      1555       1    2361     474     472     258
CTETRA      1556       1    3181    3182    1737    1501
CTETRA      1557       1    2016    2032    2031     931
CTETRA      1558       1     314     221     315     223
CTETRA      1559       1    1318    2481    1319     105
CTETRA      1560       1    1330     105    2560    1023
CTETRA      1561       1     489     541     626     920
CTETRA      1562       1    3956     637     632     633
CTETRA      1563       1    1829    1518    1516    1024
CTETRA      1564       1    3667    3668    1331    2457
CTETRA      1565       1    3286    1589    2904     577
CTETRA      1566       1     637     539     541     727
CTETRA      1567       1    1328    2458    1331     258
CTETRA      1568       1    3671    3672    1319    2485
CTETRA      1569       1     489     123     541     920
CTETRA      1570       1    3405    3406     632     541
CTETRA      1571       1    2450    2451    2482    1023
CTETRA      1572       1    3305    3306    2949    1591
CTETRA      1573       1     505     372     328     706
CTETRA      1574       1     323     328     908     324
CTETRA      1575       1    3671    1319    2481    2485
CTETRA      1576       1    3061    1235     821      62
CTETRA      1577       1     849     323     322     328
CTETRA      1578       1    3742    1330    3743    2560
CTETRA      1579       1     328     752     908     324
CTETRA      1580       1    1477     566     567     569
CTETRA      1581       1     108     109     549     393
CTETRA      1582       1    1025     548     549     109
CTETRA      1583       1    2867     930    1026    1027
CTETRA      1584       1    1341    1028    1027     830
CTETRA      1585       1    2865     814     813    1027
CTETRA      1586       1     813     815    1028    1027
CTETRA      1587       1     813     814     815    1027
CTETRA      1588       1    1346    1347     814    1027
CTETRA      1589       1    2185    2870    1029    1030
CTETRA      1590       1    1346     814    2865    1027
CTETRA      1591       1    2714    2715    2716     624
CTETRA      1592       1    2950    2951    1251     667
CTETRA      1593       1    3073    1251    1245     665
CTETRA      1594       1    3072    3073    1515    1031
CTETRA      1595       1    2949    1591    2950     667
CTETRA      1596       1    2715     442    1032     624
CTETRA      1597       1    1999    2015    2014    1033
CTETRA      1598       1    1391    1392    1034     624
CTETRA      1599       1    3275    2923    2922    1035
CTETRA      1600       1    3162    2314    2291      64
CTETRA      1601       1    3850    2173    3805    2609
CTETRA      1602       1    1391    1395     442    1034
CTETRA      1603       1    1391    1395    1394     442
CTETRA      1604       1    1395    1398     442    1034
CTETRA      1605       1    3279    2916    2915    1605
CTETRA      1606       1    1986     480    2001    1033
CTETRA      1607       1    2015    1033    2016     735
CTETRA      1608       1    2918    1607    1609      86
CTETRA      1609       1    2014     337    1033     735
CTETRA      1610       1    3871    3872    2177    1036
CTETRA      1611       1    3156     321    2308     323
CTETRA      1612       1     321     326     329     324
CTETRA      1613       1    2258     765    2259     771
CTETRA      1614       1    3100    2282    2280     610
CTETRA      1615       1     558     908     302     324
CTETRA      1616       1     744    1037    1038      34
CTETRA      1617       1    3256    1581    1574      76
CTETRA      1618       1    3330    3488    3331    1639
CTETRA      1619       1    2308     321     322     323
CTETRA      1620       1    2936    1606    2937    1039
CTETRA      1621       1    2935     390    1608     824
CTETRA      1622       1     321     329     322     324
CTETRA      1623       1    2808    2814    2811     913
CTETRA      1624       1     850     558     323     908
CTETRA      1625       1    3298    2937    2936    1606
CTETRA      1626       1     107     152     109     384
CTETRA      1627       1    3298    2935    1608     824
CTETRA      1628       1    3883    3119    3980      26
CTETRA      1629       1     107     549     108     109
CTETRA      1630       1    3874    2750    2747      36
CTETRA      1631       1     960     225    1040     384
CTETRA      1632       1    3780    1351    3781    2635
CTETRA      1633       1    2194    2197    2757     864
CTETRA      1634       1     152     225     153     384
CTETRA      1635       1    2728    2733    2731    1041
CTETRA      1636       1    1868    1042     175      93
CTETRA      1637       1     870     919     107     225
CTETRA      1638       1     152     384     153      14
CTETRA      1639       1    2740    2767    2766     658
CTETRA      1640       1    1430    1433    2610     620
CTETRA      1641       1    2680     306    2681     731
CTETRA      1642       1     453     371     236     118
CTETRA      1643       1    3799    2677    2676    1043
CTETRA      1644       1    2677    2678    2695     621
CTETRA      1645       1    3802    1430    2610    2678
CTETRA      1646       1    1491    1016     451     183
CTETRA      1647       1     134     183     451     133
CTETRA      1648       1    3784    1339    3785    2633
CTETRA      1649       1     182     183     134     133
CTETRA      1650       1     903     451     134     183
CTETRA      1651       1    3804    2612    1436     616
CTETRA      1652       1     138     117     449     116
CTETRA      1653       1    3112     698    3113     616
CTETRA      1654       1    3113    3444    3759     616
CTETRA      1655       1    2577    2590    2589     422
CTETRA      1656       1    2090     580    2589     422
CTETRA      1657       1     117     449     116     118
CTETRA      1658       1      78      54      75     294
CTETRA      1659       1     640      54       7     294
CTETRA      1660       1     304       1      54       7
CTETRA      1661       1      78      75      54      56
CTETRA      1662       1    2221    2222    2225     913
CTETRA      1663       1      78     304      54     294
CTETRA      1664       1     170     436     439     437
CTETRA      1665       1     170     441     750     303
CTETRA      1666       1    1351    2635     815    1028
CTETRA      1667       1    1316    1331    2450     258
CTETRA      1668       1    3666    2457    1331    2458
CTETRA      1669       1    2794     307     651     650
CTETRA      1670       1     168     999     170     169
CTETRA      1671       1     630     540     487     484
CTETRA      1672       1    3264    3265    1573    1044
CTETRA      1673       1    3170    3171    1666     411
CTETRA      1674       1    2421    2427     187     720
CTETRA      1675       1    2307     322     849     323
CTETRA      1676       1     630     487     540     626
CTETRA      1677       1     850     366     310     908
CTETRA      1678       1     540     626     924     627
CTETRA      1679       1     538     540     539     924
CTETRA      1680       1     628     540     924     627
CTETRA      1681       1    3081    3082    1532     560
CTETRA      1682       1    2569    2574     194     720
CTETRA      1683       1    3081    2262    2261     560
CTETRA      1684       1     248     890    1045     625
CTETRA      1685       1    1017     870     559     108
CTETRA      1686       1    1025     549     152     109
CTETRA      1687       1     870     872     871    1046
CTETRA      1688       1    1047     871     870     225
CTETRA      1689       1    1017     870    1040    1048
CTETRA      1690       1    3924    3925    2218    2813
CTETRA      1691       1    1749     822    1503     712
CTETRA      1692       1     858     821     898     823
CTETRA      1693       1    1764     858     822     899
CTETRA      1694       1    2192    1049    2195     864
CTETRA      1695       1    2191    2192    2195     864
CTETRA      1696       1    2189    2193    2192    1049
CTETRA      1697       1    3061      62     821     823
CTETRA      1698       1    2192    2193    2196    1049
CTETRA      1699       1    1748      62    1504     823
CTETRA      1700       1    3062    1503    1506     821
CTETRA      1701       1     508     836     837     490
CTETRA      1702       1    3950    2821    2169    2828
CTETRA      1703       1    3950    2169    2166    2828
CTETRA      1704       1    3211    1854    3212    1538
CTETRA      1705       1     837    1050     806     622
CTETRA      1706       1     280     614     440     588
CTETRA      1707       1    2420    2428    2427     720
CTETRA      1708       1     806     622     531     490
CTETRA      1709       1    2837     622    2839     635
CTETRA      1710       1     622     531     490    1036
CTETRA      1711       1     622     490    1051    1036
CTETRA      1712       1    3212    1854    1853    1538
CTETRA      1713       1     791     686     806     490
CTETRA      1714       1    3869    1722     413      31
CTETRA      1715       1    3950    3951    2169    2821
CTETRA      1716       1    2330      30      31     711
CTETRA      1717       1    2620     812    2631     815
CTETRA      1718       1    3626    3627    2116    2381
CTETRA      1719       1    2452    2453     185     471
CTETRA      1720       1    2428    2429    2445     675
CTETRA      1721       1    3625    2116    2115    2380
CTETRA      1722       1    3591     786    3592     857
CTETRA      1723       1    3119    3568    3567      31
CTETRA      1724       1    3869     413    3568      31
CTETRA      1725       1    3568     927    2330      31
CTETRA      1726       1     855     646     737     860
CTETRA      1727       1    1307    1309    1308     187
CTETRA      1728       1    1347     815     814    1027
CTETRA      1729       1     204     210     571     788
CTETRA      1730       1     204     737     210     788
CTETRA      1731       1    3256    2052    3257     595
CTETRA      1732       1    2037     545    2052     468
CTETRA      1733       1     857     210     737     788
CTETRA      1734       1    3926    2215    2814     167
CTETRA      1735       1     857     210    1052     737
CTETRA      1736       1     210     787     572     788
CTETRA      1737       1    2435     338     985     340
CTETRA      1738       1     641     571     572     788
CTETRA      1739       1    2230    2231     728    1053
CTETRA      1740       1     538     533     542     484
CTETRA      1741       1    3405     632    2233     542
CTETRA      1742       1    3405     632     542     541
CTETRA      1743       1    2234     533    2236     542
CTETRA      1744       1    2236    2237     542     484
CTETRA      1745       1    2230    2233     632     542
CTETRA      1746       1     480     135    1033     479
CTETRA      1747       1    2000    2001    2016    1033
CTETRA      1748       1    3165    2324     971     590
CTETRA      1749       1    3167    2339     844     971
CTETRA      1750       1    2339     408     844     971
CTETRA      1751       1    1663     844     710     971
CTETRA      1752       1    2317     990     971     590
CTETRA      1753       1     973      35     122     741
CTETRA      1754       1    1914    1915    1930     800
CTETRA      1755       1    3231    1544    1939    1545
CTETRA      1756       1    1929    1930    1945     604
CTETRA      1757       1    2339     509     408     971
CTETRA      1758       1     247     726     625     627
CTETRA      1759       1    1930    1945     604     482
CTETRA      1760       1    1289     340     339     341
CTETRA      1761       1    1913    1914    1929     708
CTETRA      1762       1     563    1045    1054     560
CTETRA      1763       1    1913    1928    1927     554
CTETRA      1764       1    1929    1944     708     604
CTETRA      1765       1     912     763     914     913
CTETRA      1766       1    2685    2690    2686     733
CTETRA      1767       1    1281    2350    2353     340
CTETRA      1768       1    1895    1910    1909     744
CTETRA      1769       1    1852     178    1867      90
CTETRA      1770       1    1636     973     704     745
CTETRA      1771       1    1926    1941     746    1055
CTETRA      1772       1     248    1056     564     244
CTETRA      1773       1    3332    1638    3487     885
CTETRA      1774       1     744     746    1037      35
CTETRA      1775       1    1056    1057     564     244
CTETRA      1776       1     562     563    1056     564
CTETRA      1777       1    3190    1746    1745    1493
CTETRA      1778       1    3177    2321    2322     969
CTETRA      1779       1    1745    1497    1493    1014
CTETRA      1780       1     805     800     604     795
CTETRA      1781       1     248     564     249     244
CTETRA      1782       1    1744    1745    1759     775
CTETRA      1783       1      52     378     374     887
CTETRA      1784       1    3206    1837    3207    1520
CTETRA      1785       1    3207    1837    1838    1520
CTETRA      1786       1    1927     554     605    1055
CTETRA      1787       1    2898     756     938     940
CTETRA      1788       1    1770    1771    1785     574
CTETRA      1789       1     664     666     659     661
CTETRA      1790       1    1827    1828    1517     819
CTETRA      1791       1    1441    1457     547      52
CTETRA      1792       1    2287    1058     241     430
CTETRA      1793       1     354     352     348     347
CTETRA      1794       1    2956    2957    1254     599
CTETRA      1795       1     333     964     948     334
CTETRA      1796       1    1769    1784    1783     759
CTETRA      1797       1    1652      52     957     884
CTETRA      1798       1    1441     119    1448      52
CTETRA      1799       1    3125    1448    1447      52
CTETRA      1800       1     547     119      52     378
CTETRA      1801       1    1745    1760    1759     775
CTETRA      1802       1    1744    1059    1496     775
CTETRA      1803       1    1008    1013     997    1015
CTETRA      1804       1    1743    1496    1744    1059
CTETRA      1805       1    3763    2690    2685     733
CTETRA      1806       1    1441     547     119      52
CTETRA      1807       1     276      57     278     509
CTETRA      1808       1     990     710     278     509
CTETRA      1809       1    3561     276     408     509
CTETRA      1810       1    3066     946     947     206
CTETRA      1811       1    3294    1613    3295     204
CTETRA      1812       1     990     710     509     971
CTETRA      1813       1     408     509     710     971
CTETRA      1814       1    2317     990     509     971
CTETRA      1815       1    3938    2868    2179    2869
CTETRA      1816       1    2317     509    2340     971
CTETRA      1817       1    2339    2340     509     971
CTETRA      1818       1    1845    1846    1860    1060
CTETRA      1819       1    3167    2340    2339     971
CTETRA      1820       1     791     988     490    1036
CTETRA      1821       1    3871    1051     988    1036
CTETRA      1822       1    2682    2691    2698     835
CTETRA      1823       1    3136    1565     274    1061
CTETRA      1824       1    3252    3253    1565     145
CTETRA      1825       1    3251    3252    1564    1025
CTETRA      1826       1     992     989     990      59
CTETRA      1827       1     714     791     282     988
CTETRA      1828       1    3249    1559    1062     364
CTETRA      1829       1     990     988      57      59
CTETRA      1830       1    1707    1063     851     873
CTETRA      1831       1      15     450     448     449
CTETRA      1832       1    1650    1655    1064     149
CTETRA      1833       1    2179    2869    2868    1029
CTETRA      1834       1    3253    1946    3254      68
CTETRA      1835       1      19      15      12      11
CTETRA      1836       1    2707    1065    2725    1032
CTETRA      1837       1    2706    2716    1032     623
CTETRA      1838       1    3136    1468    3137    1061
CTETRA      1839       1     975     395     977     701
CTETRA      1840       1    2725    1032    1065    1066
CTETRA      1841       1    3963     395     975     783
CTETRA      1842       1    3488    3489    2280     768
CTETRA      1843       1    1847    1862    1861    1067
CTETRA      1844       1     395     431     701     700
CTETRA      1845       1    1438     400     395     431
CTETRA      1846       1    3111     530     698     700
CTETRA      1847       1    3135    1486    1488     198
CTETRA      1848       1    1650     149     106     387
CTETRA      1849       1     959       6     290       4
CTETRA      1850       1     278       3      58     289
CTETRA      1851       1     278      58     279     289
CTETRA      1852       1      55      58      63      56
CTETRA      1853       1    2312    2313       1       2
CTETRA      1854       1    1845    1527    1846     770
CTETRA      1855       1     478       2     279      63
CTETRA      1856       1      57     278      58     279
CTETRA      1857       1      55       1       2      58
CTETRA      1858       1    2313    2314      55       2
CTETRA      1859       1    2873    1068    1069    1029
CTETRA      1860       1     284     436     438     972
CTETRA      1861       1    3207    1838    3208    1522
CTETRA      1862       1     436     965     438     972
CTETRA      1863       1    3388    1730     285     284
CTETRA      1864       1    3196    1510    1827    1517
CTETRA      1865       1    3388     285    3517     284
CTETRA      1866       1    3125    1447    3126    1654
CTETRA      1867       1    3388    3516    3515     435
CTETRA      1868       1    3388    3516     435     284
CTETRA      1869       1    1828    1070    1071     819
CTETRA      1870       1     238      96     100      97
CTETRA      1871       1     150     138     117     449
CTETRA      1872       1     150      12     138     449
CTETRA      1873       1    3253    3254    1558     274
CTETRA      1874       1    3197    1828    1516    1517
CTETRA      1875       1     115     150     138     117
CTETRA      1876       1     138     451     134     116
CTETRA      1877       1     117     240     449     118
CTETRA      1878       1     524     559     407    1072
CTETRA      1879       1     695     407    1072    1073
CTETRA      1880       1    1017     559     695     407
CTETRA      1881       1    1074     407     446    1073
CTETRA      1882       1     570     407     559     393
CTETRA      1883       1    2743     404    2830     928
CTETRA      1884       1    2637    2638     219     213
CTETRA      1885       1    2760    2792    1032    1066
CTETRA      1886       1    1364    1367    2832    1005
CTETRA      1887       1    1322    1327    1326     845
CTETRA      1888       1    1018     446     407    1073
CTETRA      1889       1    1367     928    2832    1005
CTETRA      1890       1    1876     769     764    1060
CTETRA      1891       1    3896    3897    1340    2866
CTETRA      1892       1    3219    1846    1845    1527
CTETRA      1893       1    1335    1338    1336    1026
CTETRA      1894       1    1569     362     308     510
CTETRA      1895       1    1075    1076     352    1077
CTETRA      1896       1    1340    1344    1343    1027
CTETRA      1897       1    1078     352    1075    1076
CTETRA      1898       1    3588    3180    1736    1507
CTETRA      1899       1     786     787     789    1079
CTETRA      1900       1     786     789     646    1079
CTETRA      1901       1    1080    1077     646    1079
CTETRA      1902       1    3207    1520    1838    1522
CTETRA      1903       1     786     344    1078     352
CTETRA      1904       1     861     352     786    1079
CTETRA      1905       1     861    1077     352    1079
CTETRA      1906       1    3656    1303    1294    2387
CTETRA      1907       1    3656    1303    2387    2396
CTETRA      1908       1    2912    2913    1233     997
CTETRA      1909       1    3280    2914    2913    1603
CTETRA      1910       1     303     302     910     293
CTETRA      1911       1    3266     780     779     910
CTETRA      1912       1    3265     780    3266     910
CTETRA      1913       1    3385    1712    1724     443
CTETRA      1914       1    2719    2723    2722     416
CTETRA      1915       1     903     182     134     901
CTETRA      1916       1     182     132     134     901
CTETRA      1917       1     903     134     112     901
CTETRA      1918       1    3853    3553    3854    1712
CTETRA      1919       1     283     989      59      64
CTETRA      1920       1    2807     835     834     923
CTETRA      1921       1    1679     900     414     901
CTETRA      1922       1     130     193     132     131
CTETRA      1923       1    3856    3549     168     497
CTETRA      1924       1    3838    2140    3839    2645
CTETRA      1925       1     188     147     191     132
CTETRA      1926       1    3179    2328    2326     169
CTETRA      1927       1    3507     591    2299     283
CTETRA      1928       1    3853    3554    3553     481
CTETRA      1929       1     581     129    1081    1082
CTETRA      1930       1    3008    1486    1490     131
CTETRA      1931       1    3048    3379    3968     182
CTETRA      1932       1    3008    1680    3380     186
CTETRA      1933       1     577    1083     129    1082
CTETRA      1934       1    1084     127    1085    1082
CTETRA      1935       1    1086    1083    1087    1082
CTETRA      1936       1     855    1052     859     737
CTETRA      1937       1    2760    1032    2761     623
CTETRA      1938       1    3273    3965    2925     866
CTETRA      1939       1    1084     662     579    1082
CTETRA      1940       1    1008      91     997      22
CTETRA      1941       1    3148    1492    1016    1088
CTETRA      1942       1     152     363     384      14
CTETRA      1943       1    1805    1806    1089    1090
CTETRA      1944       1     388     384     363      14
CTETRA      1945       1    3280    2915    2914    1605
CTETRA      1946       1    1064     384     149     155
CTETRA      1947       1    2913    2914    1233      21
CTETRA      1948       1       8     153     227      14
CTETRA      1949       1    1064     960     384     155
CTETRA      1950       1    1091     154     316     155
CTETRA      1951       1    3941    3942    2142    2857
CTETRA      1952       1    1091     150     154     155
CTETRA      1953       1    3114    1711    1710    1046
CTETRA      1954       1    2818    2824    2823     213
CTETRA      1955       1     221     154     227     155
CTETRA      1956       1     960     224     225     155
CTETRA      1957       1     153     155     227      14
CTETRA      1958       1     785     203     249     564
CTETRA      1959       1    1057     251     202     564
CTETRA      1960       1    2818     212     211     213
CTETRA      1961       1    2637     211    2641     213
CTETRA      1962       1    1057     251     564     244
CTETRA      1963       1     562    1057     201     564
CTETRA      1964       1    2817     211     219     213
CTETRA      1965       1    1650    1655     149     379
CTETRA      1966       1    2844    2848    2849    1092
CTETRA      1967       1    2732    2733    2738    1049
CTETRA      1968       1    2817    2850    2848     211
CTETRA      1969       1    2848    2850    2849    1092
CTETRA      1970       1    2607    2608    2661     531
CTETRA      1971       1     250     499     243     249
CTETRA      1972       1     499     251     249     203
CTETRA      1973       1    2638    2662    2665     218
CTETRA      1974       1     975     783     701     251
CTETRA      1975       1     429    1057     430     251
CTETRA      1976       1    1349    1352    2827     814
CTETRA      1977       1     250     243     242     249
CTETRA      1978       1     975     854     783     251
CTETRA      1979       1    2815    2827    2816     814
CTETRA      1980       1    3892    1352    1355    2827
CTETRA      1981       1    1352    1355    2827     782
CTETRA      1982       1     145     275    1025     363
CTETRA      1983       1    2673    2674    2730     306
CTETRA      1984       1     150     388      12      14
CTETRA      1985       1     388     139     363     383
CTETRA      1986       1    2672     835    2681    1093
CTETRA      1987       1    3517     285    3518     286
CTETRA      1988       1     435     284     436     438
CTETRA      1989       1     568     436     434     286
CTETRA      1990       1    2303     434     435     284
CTETRA      1991       1    3516    2303     435     284
CTETRA      1992       1    2292     568    2303     286
CTETRA      1993       1    3133     379    1650     387
CTETRA      1994       1    2788    2789    2802     307
CTETRA      1995       1    3905    2783    2782    1094
CTETRA      1996       1    2674    2729    2730     307
CTETRA      1997       1    2728    2730    2729     651
CTETRA      1998       1    3517    2303     284     286
CTETRA      1999       1     400     619     621     732
CTETRA      2000       1     364    1025     152     363
CTETRA      2001       1    1428    1431     621     634
CTETRA      2002       1    2677    2695    2693     621
CTETRA      2003       1    2676    2677    2693    1043
CTETRA      2004       1     145     139     275     363
CTETRA      2005       1      67     139     137     275
CTETRA      2006       1    2691    2693    2692     636
CTETRA      2007       1      67     145     139     275
CTETRA      2008       1    1423    2777    1426     831
CTETRA      2009       1    1424    1427    2677    1043
CTETRA      2010       1    2167    2171    2170     531
CTETRA      2011       1     230     222     221     217
CTETRA      2012       1    2170    2607    2660     531
CTETRA      2013       1    1704    1021     981     222
CTETRA      2014       1    2660    2661    2664     532
CTETRA      2015       1     981    1021     230     222
CTETRA      2016       1    1705     978    1095     222
CTETRA      2017       1    3049    1236    1238     617
CTETRA      2018       1     216     223     222     217
CTETRA      2019       1     853     121     318     223
CTETRA      2020       1    3588    3194    3985    1508
CTETRA      2021       1    2074    2077    2076    1096
CTETRA      2022       1    2525    2538    2539    1097
CTETRA      2023       1    1704     121    1021     222
CTETRA      2024       1    2533    2539    2534     264
CTETRA      2025       1     756     757      18     758
CTETRA      2026       1    2111    2112    2513     690
CTETRA      2027       1     163     162     758     660
CTETRA      2028       1     598     162     163     159
CTETRA      2029       1    2106    2108      81     642
CTETRA      2030       1     160     162     598     159
CTETRA      2031       1     938     160     161     162
CTETRA      2032       1    1711    1063     872    1046
CTETRA      2033       1    2509    2513    2510     690
CTETRA      2034       1    1443    1048    1047    1046
CTETRA      2035       1    2552    2558    2556     185
CTETRA      2036       1    2472    2475    2478     676
CTETRA      2037       1    2553    2554    2564      65
CTETRA      2038       1    1047    1048     870    1046
CTETRA      2039       1    1328    1331    1329     258
CTETRA      2040       1    3665    3666    1328    2458
CTETRA      2041       1    2992    1443    1047    1046
CTETRA      2042       1    3588    3985    1507    1508
CTETRA      2043       1    2993    3114    3604    1098
CTETRA      2044       1    1804    1819    1818     998
CTETRA      2045       1    1032    1034    1099     624
CTETRA      2046       1    2419    2428    2420     675
CTETRA      2047       1    2992    3114    2993    1046
CTETRA      2048       1    2195    1049     657     864
CTETRA      2049       1    2567    2568    2585     721
CTETRA      2050       1    3828    2199    3829    2738
CTETRA      2051       1    2992    1063    3345    1046
CTETRA      2052       1    2427    2428    2444     720
CTETRA      2053       1     659    1100    1101     600
CTETRA      2054       1     939    1100     940     162
CTETRA      2055       1    3110     659     940    1100
CTETRA      2056       1    1298    1010    1101    1100
CTETRA      2057       1     939    1012    1100     162
CTETRA      2058       1    2356     940     939    1100
CTETRA      2059       1     287    1012    1010    1100
CTETRA      2060       1    1296    1010    1298    1100
CTETRA      2061       1    3627    2101    2381    2382
CTETRA      2062       1     938     939     940     162
CTETRA      2063       1    2369    2372    2373    1102
CTETRA      2064       1    1679     151     147     132
CTETRA      2065       1    1327     845    2522     848
CTETRA      2066       1    2519    2531    2528     691
CTETRA      2067       1    2369    2373    2370    1102
CTETRA      2068       1    1680     182    1686     132
CTETRA      2069       1    1679     151    1682     147
CTETRA      2070       1     188     132     191     193
CTETRA      2071       1     186     147     188     132
CTETRA      2072       1    2704    2705    2732    1103
CTETRA      2073       1    3866     705    4001     412
CTETRA      2074       1       1      58      54       3
CTETRA      2075       1    2198     657    2201     650
CTETRA      2076       1    3246    3247       8     523
CTETRA      2077       1    3247       8     523      71
CTETRA      2078       1    3245     523       8       9
CTETRA      2079       1      16      71     521       9
CTETRA      2080       1      16     146      71      10
CTETRA      2081       1    3245     362      43       9
CTETRA      2082       1    1818    1819    1833    1104
CTETRA      2083       1     362       9       8      11
CTETRA      2084       1    3255      46     313     104
CTETRA      2085       1     780     305     779     293
CTETRA      2086       1    3135    1105    1558     198
CTETRA      2087       1    3161    3162    1580      55
CTETRA      2088       1     778     593     779     305
CTETRA      2089       1    3256     595    3257     104
CTETRA      2090       1    3257    3258     104     594
CTETRA      2091       1    3157    2306    2307     323
CTETRA      2092       1    3255     313     455     104
CTETRA      2093       1     581     577     582     129
CTETRA      2094       1    3459    3460    2287     430
CTETRA      2095       1    2327     180     172     169
CTETRA      2096       1    3984    2327     172     169
CTETRA      2097       1    3014    1479    1468     396
CTETRA      2098       1    1677     838     999     169
CTETRA      2099       1    1671     838    1677     169
CTETRA      2100       1    2326     180    2327     169
CTETRA      2101       1    3984    2327    2323     172
CTETRA      2102       1    3178    1677     999     169
CTETRA      2103       1     180     169     497     171
CTETRA      2104       1     443     437     174     171
CTETRA      2105       1     168     439     497     171
CTETRA      2106       1    2326    2328     168     169
CTETRA      2107       1     956    1002     215     592
CTETRA      2108       1    1002    1106     215     592
CTETRA      2109       1    1062     153     152     215
CTETRA      2110       1     873     871     216     215
CTETRA      2111       1    1392    1099    1396    1034
CTETRA      2112       1    2617     829    2618     624
CTETRA      2113       1    3816    2235    2605     533
CTETRA      2114       1    3072    1031    1515    1107
CTETRA      2115       1    2231    2235    2234     533
CTETRA      2116       1    3201    1832    3202    1514
CTETRA      2117       1     623    1099     829     624
CTETRA      2118       1    2617     623     829     624
CTETRA      2119       1    1389    1099    1392     624
CTETRA      2120       1    3817    2232    3818    2605
CTETRA      2121       1    2153    2154    2157     311
CTETRA      2122       1    1458      98     238     233
CTETRA      2123       1    2819    2855    2854     311
CTETRA      2124       1    2152    2153    2156     976
CTETRA      2125       1     239     234     233     235
CTETRA      2126       1    2647     869    1108     976
CTETRA      2127       1    1652     883    1662     884
CTETRA      2128       1    2977     546    1456     233
CTETRA      2129       1    1923    1938    1937     825
CTETRA      2130       1    2976    3354    2977     233
CTETRA      2131       1     117     116      95      97
CTETRA      2132       1    1662      98      94      96
CTETRA      2133       1    1999    2000    2015    1033
CTETRA      2134       1    2761     623    1032    1099
CTETRA      2135       1    1662     883      94      98
CTETRA      2136       1    2976    1458     238     233
CTETRA      2137       1    3122    1459      98      96
CTETRA      2138       1    1994    2009     677     144
CTETRA      2139       1    2009     679     677     101
CTETRA      2140       1    1109     337     102     479
CTETRA      2141       1    1968    1109     522      74
CTETRA      2142       1     337    1033     144     479
CTETRA      2143       1     677     144     103     678
CTETRA      2144       1    1976    1977    1991     143
CTETRA      2145       1    2040    2041     103     101
CTETRA      2146       1    1033     136     144     479
CTETRA      2147       1    2016     480    2017     135
CTETRA      2148       1     136     144     479     142
CTETRA      2149       1     735     144     136     678
CTETRA      2150       1     677     136     143     144
CTETRA      2151       1    2846    1110    2856    1111
CTETRA      2152       1    3215    1849    3216    1529
CTETRA      2153       1    3216    1849    1848    1528
CTETRA      2154       1     507     118     240     235
CTETRA      2155       1    1694     236     237     239
CTETRA      2156       1    3227    1943    1944    1554
CTETRA      2157       1    3040    1696    3374     237
CTETRA      2158       1    3041    3374    1694     237
CTETRA      2159       1    3202    1832    1833    1514
CTETRA      2160       1    1929    1945    1944     604
CTETRA      2161       1    1891    1906     498     827
CTETRA      2162       1    1883    1112     175    1042
CTETRA      2163       1    1853    1869    1868      93
CTETRA      2164       1    1869    1885    1884    1113
CTETRA      2165       1    2591    1114     982    1073
CTETRA      2166       1    1798    1799    1813    1071
CTETRA      2167       1    1535     865     868      93
CTETRA      2168       1    1822    1837    1836    1115
CTETRA      2169       1     524    1116    1072    1073
CTETRA      2170       1    1821    1822    1836    1115
CTETRA      2171       1     446     985    1114    1073
CTETRA      2172       1    3066    1260    3067     206
CTETRA      2173       1    1821    1836     995    1115
CTETRA      2174       1    1822    1838    1837     946
CTETRA      2175       1    3303    1598    1596     127
CTETRA      2176       1    1788    1789    1803    1081
CTETRA      2177       1    2591    1074    1117    1073
CTETRA      2178       1    2586    2594    2591     982
CTETRA      2179       1    1803     998    1084    1081
CTETRA      2180       1    2591    2594    1074    1073
CTETRA      2181       1    1802    1803    1817     662
CTETRA      2182       1    2941    2942    1250     790
CTETRA      2183       1     254     325     833     751
CTETRA      2184       1    1788    1803    1802     579
CTETRA      2185       1    2922    1035    1241      85
CTETRA      2186       1    3061    3062    1506     821
CTETRA      2187       1    2920      85    1242    1118
CTETRA      2188       1     253     269     833     255
CTETRA      2189       1    1119     326    1044     910
CTETRA      2190       1    1748    1506    1749     823
CTETRA      2191       1     908     752     302     324
CTETRA      2192       1     252     254     325     255
CTETRA      2193       1    2731    2733    2732    1041
CTETRA      2194       1     846     252     330     257
CTETRA      2195       1    2185    1030    1029    1120
CTETRA      2196       1    3883    3980    3873      26
CTETRA      2197       1    3980    3119    3869    3568
CTETRA      2198       1    3119      25      31      26
CTETRA      2199       1    3119      31    3567      26
CTETRA      2200       1    2822     840     635     839
CTETRA      2201       1    1108     976     869     839
CTETRA      2202       1    3980    3567    3119    3568
CTETRA      2203       1    2163    2828    2166     839
CTETRA      2204       1    2165    2169     635     839
CTETRA      2205       1    2165     840     869     839
CTETRA      2206       1    3883    1379    3119      26
CTETRA      2207       1     698     783     699     700
CTETRA      2208       1    3496    3814    3497     409
CTETRA      2209       1    3136     274    1558    1105
CTETRA      2210       1    3014     432     427     396
CTETRA      2211       1    2792    1065    1032    1066
CTETRA      2212       1     615     701     616     699
CTETRA      2213       1     698     841     616     699
CTETRA      2214       1    1065     442    1094    1034
CTETRA      2215       1    3113     698     841     616
CTETRA      2216       1    1690     453    1692     116
CTETRA      2217       1    3148    1481    1492    1088
CTETRA      2218       1    2969    2970    1465     879
CTETRA      2219       1    3046    3377    3047     903
CTETRA      2220       1     428     792     785     203
CTETRA      2221       1    3443    3760     616     699
CTETRA      2222       1    3443    3444     792     699
CTETRA      2223       1    2066    2366    2416     537
CTETRA      2224       1    3125    1447    1654     314
CTETRA      2225       1      80     263    1097     537
CTETRA      2226       1    1647    1648     960    1048
CTETRA      2227       1    3599    1019    1018     987
CTETRA      2228       1    1647    1653    1654     314
CTETRA      2229       1    3127    1445    1446     853
CTETRA      2230       1    3338    1631    1632     802
CTETRA      2231       1      78     292      75      77
CTETRA      2232       1     283      77      59     588
CTETRA      2233       1    3319    3320    3425     867
CTETRA      2234       1     992      59     590     613
CTETRA      2235       1     630     626     540     627
CTETRA      2236       1    1633    1634     784     703
CTETRA      2237       1     722     725     538     539
CTETRA      2238       1     628     538     725     924
CTETRA      2239       1     538     539     725     924
CTETRA      2240       1     951     725     539     924
CTETRA      2241       1    3141    1563    1562    1002
CTETRA      2242       1    1609    1612    1611     739
CTETRA      2243       1     924     727     726     626
CTETRA      2244       1     540     539     924     626
CTETRA      2245       1     951     246    1121     924
CTETRA      2246       1      19      68      16      20
CTETRA      2247       1    3253      68      67     146
CTETRA      2248       1    1122      41    1071     333
CTETRA      2249       1    3137    1468    1479    1061
CTETRA      2250       1      16     146     521      71
CTETRA      2251       1    3726    1011    2490     467
CTETRA      2252       1    1953    1968     522     469
CTETRA      2253       1      43     483      72      44
CTETRA      2254       1    3197    1829    3198    1516
CTETRA      2255       1     522     521     523     469
CTETRA      2256       1      43     521      16     483
CTETRA      2257       1    1841    1842     517    1123
CTETRA      2258       1    1842    1533     517    1123
CTETRA      2259       1    1841     895    1539    1123
CTETRA      2260       1    3185    1741    1740    1495
CTETRA      2261       1     516    1124     893    1123
CTETRA      2262       1    3186    1742    1741    1498
CTETRA      2263       1    3010    3380    3381    1681
CTETRA      2264       1    3079    1539     895    1123
CTETRA      2265       1    3009    3010    1488     188
CTETRA      2266       1    2245    1125     893    1123
CTETRA      2267       1    3079     895    2245    1123
CTETRA      2268       1    3115    1710    3116     872
CTETRA      2269       1     153     384     155      14
CTETRA      2270       1    3023    1475    1469     592
CTETRA      2271       1    3019    3020    1480     569
CTETRA      2272       1     949     649     759     948
CTETRA      2273       1    2192    2196    2195    1049
CTETRA      2274       1      41     759     157     948
CTETRA      2275       1     156     935     796     157
CTETRA      2276       1     596    1071    1126    1024
CTETRA      2277       1     904     796     935     157
CTETRA      2278       1    3140    1469    1475    1002
CTETRA      2279       1    2974    2975    1459     238
CTETRA      2280       1     644     649     948     334
CTETRA      2281       1    2895     160     156     159
CTETRA      2282       1     759     950     904     649
CTETRA      2283       1    3915    3916    1435    2884
CTETRA      2284       1    2174     622    1051    1036
CTETRA      2285       1    2684    2685    2695     732
CTETRA      2286       1     836     622     490    1051
CTETRA      2287       1    3917    1439    1438    2882
CTETRA      2288       1    1933    1934    1548     565
CTETRA      2289       1    3872     282    3805    1036
CTETRA      2290       1    2609     791     531    1036
CTETRA      2291       1    2173     531    2174    1036
CTETRA      2292       1    3871     991     988    1051
CTETRA      2293       1    3871     988    3872    1036
CTETRA      2294       1     148     150    1091     155
CTETRA      2295       1     224     227     153     155
CTETRA      2296       1      16      10       9      11
CTETRA      2297       1    2739    2768    2767     634
CTETRA      2298       1    1411    2781    2780    1022
CTETRA      2299       1    2780    2781    2800    1022
CTETRA      2300       1    1404    1405    1408    1094
CTETRA      2301       1     388     155     384      14
CTETRA      2302       1     883     957     154     374
CTETRA      2303       1    3906    1408    1405    2781
CTETRA      2304       1    1091     957     316     154
CTETRA      2305       1       8     227     980     375
CTETRA      2306       1    2304    2315       5       6
CTETRA      2307       1    3497     409     959       6
CTETRA      2308       1    1263     820    1127     209
CTETRA      2309       1    1255    1126      39     819
CTETRA      2310       1      39    1126    1128     819
CTETRA      2311       1     820    1128    1070     819
CTETRA      2312       1    3905    3906    1405    2782
CTETRA      2313       1    3077    1510     819     209
CTETRA      2314       1    1352    1353     781     812
CTETRA      2315       1    3076    1516    1126     819
CTETRA      2316       1    3893    1349    1352    2827
CTETRA      2317       1    1075     348     352     343
CTETRA      2318       1    3756    1292    1283    2588
CTETRA      2319       1    1098     875     870    1046
CTETRA      2320       1    1278    1279    1291     339
CTETRA      2321       1    1106     873     215     592
CTETRA      2322       1    3754    1291    1292    2580
CTETRA      2323       1    2955    2956    1253     335
CTETRA      2324       1    1047     317     216     225
CTETRA      2325       1    1063     216     873     871
CTETRA      2326       1    2914    2915      21      23
CTETRA      2327       1    2915    1129    1234      61
CTETRA      2328       1    3059    1217    1233    1015
CTETRA      2329       1    2914    1232    1233      21
CTETRA      2330       1    3087    3088    1529     612
CTETRA      2331       1     981     230     231     222
CTETRA      2332       1    3061    1231    3062     821
CTETRA      2333       1     389      86      23      61
CTETRA      2334       1     364     153      70      10
CTETRA      2335       1    1224      91    1015     775
CTETRA      2336       1     951    1130     725    1121
CTETRA      2337       1    2298    2299     281     283
CTETRA      2338       1    3852    3555    3853    1713
CTETRA      2339       1    2910    2911    1224      91
CTETRA      2340       1    3508    3509    2299     591
CTETRA      2341       1    3126    1447    1445    1654
CTETRA      2342       1     315     230    1021     222
CTETRA      2343       1    3034    3370    1702    1131
CTETRA      2344       1    3371    1702    1700     647
CTETRA      2345       1    1699    1700    1702     887
CTETRA      2346       1    1850    1865    1864     612
CTETRA      2347       1    3034    1467    1474     309
CTETRA      2348       1    3145    1467    1483     308
CTETRA      2349       1    1483     510     647    1132
CTETRA      2350       1    3124    1457    1441     884
CTETRA      2351       1    3034    3035    1467     309
CTETRA      2352       1    1095     214     318     222
CTETRA      2353       1    1703    1131     981     378
CTETRA      2354       1     980    1131     309     230
CTETRA      2355       1    3369    1703    3370    1131
CTETRA      2356       1     917       8     153     227
CTETRA      2357       1    2994    1454    1443    1098
CTETRA      2358       1    3131    1040    1651    1048
CTETRA      2359       1    1648    1651    1040    1048
CTETRA      2360       1    3129    1648    1647    1048
CTETRA      2361       1    1443    1098    1048    1046
CTETRA      2362       1    3058    1493    1497    1015
CTETRA      2363       1    3188    1744    1496    1497
CTETRA      2364       1    3034    3370    3371    1702
CTETRA      2365       1    3129    1647     317    1048
CTETRA      2366       1    1478     566     548     393
CTETRA      2367       1    3003     876    3004     385
CTETRA      2368       1    3129     317    1449    1048
CTETRA      2369       1    1443    1449    1047    1048
CTETRA      2370       1    2044    2059    1133    1134
CTETRA      2371       1    2044    1133    2045    1134
CTETRA      2372       1    3395    1727    3396     514
CTETRA      2373       1    2060    2061     463    1134
CTETRA      2374       1    2047     456     463     931
CTETRA      2375       1    3396    3530    3529     322
CTETRA      2376       1    3089    2238    1135      89
CTETRA      2377       1    2046    2047     463     931
CTETRA      2378       1    3351     119    1703     120
CTETRA      2379       1    2059     778    1133    1134
CTETRA      2380       1    3032    1474    1473    1131
CTETRA      2381       1    3349     121    1705     318
CTETRA      2382       1    3264     778    2060     463
CTETRA      2383       1    2060     463     778    1134
CTETRA      2384       1    1707    1709    1711     873
CTETRA      2385       1     463     455     593     464
CTETRA      2386       1     593     103    1134     464
CTETRA      2387       1     778     593     463     779
CTETRA      2388       1     858     859    1136     737
CTETRA      2389       1     463     593    1134     464
CTETRA      2390       1    3279    2916    1605    1607
CTETRA      2391       1    2085     261     359     358
CTETRA      2392       1    2081     261     351     359
CTETRA      2393       1    1137     320     979     359
CTETRA      2394       1    2080    2081     351     359
CTETRA      2395       1    3215    1525    1850    1529
CTETRA      2396       1    1260     947     205     206
CTETRA      2397       1    2079    2080     350     359
CTETRA      2398       1    2079     350     979     359
CTETRA      2399       1    2079    2082    2080     359
CTETRA      2400       1     568    1138     436     970
CTETRA      2401       1     970     303     833     552
CTETRA      2402       1    1734     544    1139     972
CTETRA      2403       1    2420     675     720     721
CTETRA      2404       1    3282    2911    2910    1599
CTETRA      2405       1    1599    1602    1601     776
CTETRA      2406       1    3301    2942    2941    1600
CTETRA      2407       1     544     552     970     967
CTETRA      2408       1     544     972     965     286
CTETRA      2409       1    3811    2595    1140    1141
CTETRA      2410       1     927     847     749     506
CTETRA      2411       1    3045     453    1690     903
CTETRA      2412       1    2817    2825    2824    1003
CTETRA      2413       1    2817    2818     211     213
CTETRA      2414       1    1367    1370    2832     928
CTETRA      2415       1    1369    2668    2658    1004
CTETRA      2416       1    2079    2083     320     979
CTETRA      2417       1    1142     733    1143    1121
CTETRA      2418       1    1137     350     979     543
CTETRA      2419       1    2682    1144     922     835
CTETRA      2420       1    2671    2683    2682     922
CTETRA      2421       1    2682    2683    2691     922
CTETRA      2422       1    2343     458    1137     979
CTETRA      2423       1    2197     864    2198     650
CTETRA      2424       1    2189    1049    2192    1030
CTETRA      2425       1    2732    1103    1041    1049
CTETRA      2426       1    2078    2088    2089     979
CTETRA      2427       1     458     979    1096     543
CTETRA      2428       1    1847     771    1530    1067
CTETRA      2429       1    3085    1530     771    1067
CTETRA      2430       1    3086    1528     856     811
CTETRA      2431       1     716     717     856    1067
CTETRA      2432       1    2805     731     834     835
CTETRA      2433       1    1848     717    1863    1067
CTETRA      2434       1    2672    2682    2681     835
CTETRA      2435       1    1862    1863     716    1067
CTETRA      2436       1    3461     951     637    1145
CTETRA      2437       1    2691     922     636     923
CTETRA      2438       1    1417     418    2779     415
CTETRA      2439       1     717     811     856    1067
CTETRA      2440       1      27      79    1146     926
CTETRA      2441       1     881     803     800    1146
CTETRA      2442       1     881     799     800     803
CTETRA      2443       1    3981    1460    1464     414
CTETRA      2444       1    3845    2161    3846    2640
CTETRA      2445       1     800      79     993    1146
CTETRA      2446       1      27    1146    1147     926
CTETRA      2447       1    3847    2167    2660    2664
CTETRA      2448       1     925    1147    1146     926
CTETRA      2449       1    3393    3526    3525    1148
CTETRA      2450       1      28     803    1147    1146
CTETRA      2451       1      30     843      36     718
CTETRA      2452       1    3564    3876    3875     270
CTETRA      2453       1    2188    2189    2192    1030
CTETRA      2454       1       7     506     639       3
CTETRA      2455       1    3874      30      36      26
CTETRA      2456       1    3394    1729    3395     514
CTETRA      2457       1    2238    2257     886      89
CTETRA      2458       1    1681    1683    1684     147
CTETRA      2459       1    2257    1149     886      89
CTETRA      2460       1    1376    1380    1379      37
CTETRA      2461       1    1150     745      33      84
CTETRA      2462       1    2553    2564    2563     680
CTETRA      2463       1    2552    2556    2553     189
CTETRA      2464       1    2384    2385     264     266
CTETRA      2465       1    1150      88     745      84
CTETRA      2466       1    2466    2474     470     721
CTETRA      2467       1    1151     645      40     648
CTETRA      2468       1     331    1152     648     164
CTETRA      2469       1    1151     462     645     648
CTETRA      2470       1    3727    2486    2549     467
CTETRA      2471       1    2487    2546    2548    1153
CTETRA      2472       1    2409     461    2412     962
CTETRA      2473       1    3870     991    3871    1051
CTETRA      2474       1    2401     465     466    1154
CTETRA      2475       1    3805     791    2609    1036
CTETRA      2476       1     696    1001     936     986
CTETRA      2477       1    2176     622    2756    1051
CTETRA      2478       1    2174     622    2176    1051
CTETRA      2479       1    3880     508     836     837
CTETRA      2480       1    3758    2501    1284     573
CTETRA      2481       1    2451    2456    2452    1023
CTETRA      2482       1     710     172     590      59
CTETRA      2483       1    2453    1155     185     471
CTETRA      2484       1    3669    1318    1316    2482
CTETRA      2485       1     172      59     174     173
CTETRA      2486       1    1391    1392    1395    1034
CTETRA      2487       1    3165     971    1673     590
CTETRA      2488       1    2504     535    2514     472
CTETRA      2489       1    3668    3669    1316    2450
CTETRA      2490       1    3556     992    2324     590
CTETRA      2491       1    1313    2557    1320      69
CTETRA      2492       1    3165     172    2323     590
CTETRA      2493       1    1010    1012    1101    1100
CTETRA      2494       1    3668    2450    1331    2457
CTETRA      2495       1    3973    1298    3723    1101
CTETRA      2496       1    1897     817     553     743
CTETRA      2497       1    1882    1112    1897     817
CTETRA      2498       1     730     229     817     743
CTETRA      2499       1    1328    2360    2458     473
CTETRA      2500       1    2478     189    2479     185
CTETRA      2501       1    2559     105     185     471
CTETRA      2502       1    2504    2514    2505     472
CTETRA      2503       1    2363    2460    2456     471
CTETRA      2504       1    2787    2803    2800    1156
CTETRA      2505       1     229     740     784     817
CTETRA      2506       1     228     817     784     703
CTETRA      2507       1    2361    2373    2362     474
CTETRA      2508       1    1882     175    1112     817
CTETRA      2509       1    2116    2381     690     534
CTETRA      2510       1    2503    2558    1155     471
CTETRA      2511       1    2137     256    1110    1157
CTETRA      2512       1    2851    1158    2858    1157
CTETRA      2513       1    3937    2182    2870    1029
CTETRA      2514       1    2139    1111    2856    1157
CTETRA      2515       1    2138    1110    1111    1157
CTETRA      2516       1    2080     351     350     359
CTETRA      2517       1    2137    1110    2138    1157
CTETRA      2518       1    3857    1730    1728     438
CTETRA      2519       1    2895    1227    1228     156
CTETRA      2520       1     170     438     436     965
CTETRA      2521       1    3685    3686    1287    2351
CTETRA      2522       1     170     999     438     965
CTETRA      2523       1    1730     285     284     972
CTETRA      2524       1    3604    1287    2351     694
CTETRA      2525       1    3399    3493    3492     476
CTETRA      2526       1    1728     168     438     439
CTETRA      2527       1    2997    3600    1018     695
CTETRA      2528       1     435     439     436     437
CTETRA      2529       1    3866     705     412     372
CTETRA      2530       1    1577     558     321     323
CTETRA      2531       1    3256      76      78      53
CTETRA      2532       1    2298     281      87     283
CTETRA      2533       1    3399    3400    3494    1719
CTETRA      2534       1    1159     304     310       7
CTETRA      2535       1     296     302     297     294
CTETRA      2536       1      78      75     292     294
CTETRA      2537       1     505     295       7     296
CTETRA      2538       1     505     295     296     752
CTETRA      2539       1     640       7     295     294
CTETRA      2540       1    3317    3421    3420     228
CTETRA      2541       1    3477    3478    2270     793
CTETRA      2542       1    3668    1316    1331    2450
CTETRA      2543       1     296     302     752     297
CTETRA      2544       1    2188     864    2872    1030
CTETRA      2545       1    1103    1029    1030    1120
CTETRA      2546       1    3463    3955    3464     633
CTETRA      2547       1    3938    2131    2179    2868
CTETRA      2548       1    2759    1041    1103    1030
CTETRA      2549       1    2758    2872     864    1030
CTETRA      2550       1    2758    1041    2759    1030
CTETRA      2551       1     949     342     652     948
CTETRA      2552       1    2206    2209    2810     179
CTETRA      2553       1     260     644     342     964
CTETRA      2554       1    1160     920     561     921
CTETRA      2555       1    2808    2811     834     913
CTETRA      2556       1    2215    2216    2219     167
CTETRA      2557       1     260     342     652     343
CTETRA      2558       1    2869    2874    2873    1029
CTETRA      2559       1    3734    1296    1295    2488
CTETRA      2560       1     270     272     639     291
CTETRA      2561       1    2198     864     657     650
CTETRA      2562       1     843     272     718     639
CTETRA      2563       1      30     270     843     639
CTETRA      2564       1    2185    2189    1030    1120
CTETRA      2565       1    2758    2875    2872    1030
CTETRA      2566       1    3830    2193    3831    2734
CTETRA      2567       1      31     639     718     707
CTETRA      2568       1     749     640     844     506
CTETRA      2569       1     927     505     847     506
CTETRA      2570       1     503     639     504     506
CTETRA      2571       1    2132    2133    2181    1161
CTETRA      2572       1    2845    1110    2881     952
CTETRA      2573       1    2138    2139    2142    1157
CTETRA      2574       1     927     711      31     506
CTETRA      2575       1    3940    2139    2847    2856
CTETRA      2576       1    3713    2104    2068    2521
CTETRA      2577       1    2066    2067    2107     537
CTETRA      2578       1      30     718      31     639
CTETRA      2579       1    2521    2529    2530     263
CTETRA      2580       1    3735    2488    1295    1162
CTETRA      2581       1    2067    2070    2069     263
CTETRA      2582       1     309     374     378     887
CTETRA      2583       1    2108    2378      81     642
CTETRA      2584       1    1703    1021     119     378
CTETRA      2585       1    1703     120     119    1021
CTETRA      2586       1    2106      81     475     642
CTETRA      2587       1    1380     587    1383      25
CTETRA      2588       1    1674    1678    1677     838
CTETRA      2589       1    2102    2109    2106     642
CTETRA      2590       1    3712    2104    3713    2521
CTETRA      2591       1    1817    1107    1832     668
CTETRA      2592       1    2580    2588    2586     982
CTETRA      2593       1    2352     984     696     340
CTETRA      2594       1    2579    2580    2586     982
CTETRA      2595       1    2579     338    2581     339
CTETRA      2596       1    2581     339     338     341
CTETRA      2597       1    1282    1292     339     986
CTETRA      2598       1    1116     340     982     986
CTETRA      2599       1    1292    2588     339     986
CTETRA      2600       1    1142    1121     430    1057
CTETRA      2601       1    1163    1057     733     202
CTETRA      2602       1     200     701     699     203
CTETRA      2603       1     201    1057    1163     202
CTETRA      2604       1    1997    2012    2011     337
CTETRA      2605       1     629    1056    1121    1057
CTETRA      2606       1    1056     247    1121     244
CTETRA      2607       1     248    1056     247     625
CTETRA      2608       1    3476    2277     802     603
CTETRA      2609       1     429    1142    1057     202
CTETRA      2610       1     554     708     882     794
CTETRA      2611       1    1142     733    1057     202
CTETRA      2612       1    1944    1551    1554     604
CTETRA      2613       1    2450    2459    1023     258
CTETRA      2614       1    2269    2270     557     882
CTETRA      2615       1    3228    1942    1943    1552
CTETRA      2616       1    1894    1909    1908    1038
CTETRA      2617       1    1878     810     760     717
CTETRA      2618       1    1908    1909    1923     825
CTETRA      2619       1    1331    2457    2450     258
CTETRA      2620       1    1745    1746    1760    1014
CTETRA      2621       1    1745    1493    1746    1014
CTETRA      2622       1    2897    3643    3642     938
CTETRA      2623       1    3206    1836    1837    1521
CTETRA      2624       1    1333    2517     473     258
CTETRA      2625       1    1821     995    1089    1115
CTETRA      2626       1    1328    1333     473     258
CTETRA      2627       1    1316    2450    1023     258
CTETRA      2628       1    1316    1023    1330     258
CTETRA      2629       1    1823    1824    1839     946
CTETRA      2630       1    1330    1023    2506     258
CTETRA      2631       1    1811    1078    1826     208
CTETRA      2632       1     870     107     919     549
CTETRA      2633       1    1299    2407    1300     287
CTETRA      2634       1    1719    1721    1720     476
CTETRA      2635       1    1164     426     425     319
CTETRA      2636       1    1738    1739     950     797
CTETRA      2637       1    2953    2954    1256     601
CTETRA      2638       1    1783    1798    1797    1122
CTETRA      2639       1     109     381     877     394
CTETRA      2640       1    2957    2958    1254      40
CTETRA      2641       1    2889    2890    1218     346
CTETRA      2642       1    3191    1747    1746    1505
CTETRA      2643       1     106     107     109     384
CTETRA      2644       1    1017     559     407     108
CTETRA      2645       1    1743      50    1757     602
CTETRA      2646       1    1017    1040     870     108
CTETRA      2647       1    1020     106     108     382
CTETRA      2648       1     401     108    1019     399
CTETRA      2649       1    3188    1744    1743    1496
CTETRA      2650       1    3187    1743    1742    1499
CTETRA      2651       1    3125     314    1652      52
CTETRA      2652       1     245     246     298     726
CTETRA      2653       1    3350    1703    1704     120
CTETRA      2654       1    3036    3371    3372     647
CTETRA      2655       1     401     381     108     394
CTETRA      2656       1    3242      72      43      16
CTETRA      2657       1    1652     314     957      52
CTETRA      2658       1    3240    3241      19      16
CTETRA      2659       1    2980    2981    1441     547
CTETRA      2660       1      16      71       9      10
CTETRA      2661       1    3032    3369    1131     981
CTETRA      2662       1    3250     146     364      71
CTETRA      2663       1    3250     521     146      71
CTETRA      2664       1     113     141      16     483
CTETRA      2665       1    3253     113      68     146
CTETRA      2666       1     388     363     139      14
CTETRA      2667       1    3243     362      15      43
CTETRA      2668       1    1285     936    1287    1001
CTETRA      2669       1    3242    3243      15      43
CTETRA      2670       1    1574     280      76     281
CTETRA      2671       1      43     521     523       9
CTETRA      2672       1       8     523      71       9
CTETRA      2673       1    3729     331    1151      40
CTETRA      2674       1    1254      39    1126      40
CTETRA      2675       1    1254    1126     599      40
CTETRA      2676       1     599    1126     333      40
CTETRA      2677       1    2958      38    2959      39
CTETRA      2678       1    3309    3449    3448     608
CTETRA      2679       1    2385     983     962     266
CTETRA      2680       1    3490    2281    2280     610
CTETRA      2681       1    2957     599     331      40
CTETRA      2682       1    2957    1254     599      40
CTETRA      2683       1    3450     609    1641     607
CTETRA      2684       1    3309    1641    3449     608
CTETRA      2685       1    1718     849     705     706
CTETRA      2686       1    2933    1610     390     196
CTETRA      2687       1    1718     372    1721     706
CTETRA      2688       1    1720     476    1721     372
CTETRA      2689       1    1641    1643    1644     608
CTETRA      2690       1    1720     503     476     372
CTETRA      2691       1    1038     810      33     762
CTETRA      2692       1     768     610      32      34
CTETRA      2693       1    3220    1527    1845    1534
CTETRA      2694       1    1038    1037     825      34
CTETRA      2695       1    3364     592    3116     872
CTETRA      2696       1     761     762      34     611
CTETRA      2697       1     825      34     610     611
CTETRA      2698       1    2263     563     428    1054
CTETRA      2699       1     907    1072     875     694
CTETRA      2700       1     984    1072    1116    1073
CTETRA      2701       1    1165    1001    1072    1000
CTETRA      2702       1    1843    1858     890    1166
CTETRA      2703       1     524     559     570     407
CTETRA      2704       1     524    1072     407    1073
CTETRA      2705       1     695    1072     984    1073
CTETRA      2706       1     524    1072    1116    1000
CTETRA      2707       1    1165     559     524    1072
CTETRA      2708       1    1165     567     524     559
CTETRA      2709       1      75     748     918     294
CTETRA      2710       1    1742    1498    1499     602
CTETRA      2711       1    1757    1772    1771     916
CTETRA      2712       1      76     281     280      77
CTETRA      2713       1    1742    1757    1756     602
CTETRA      2714       1      76      46      78      77
CTETRA      2715       1     292     174     440     441
CTETRA      2716       1    3055    1220    3056      50
CTETRA      2717       1    3185    1741    1495    1498
CTETRA      2718       1    1741    1742    1756     602
CTETRA      2719       1     918     174     292     750
CTETRA      2720       1      46     292     441     293
CTETRA      2721       1     312     441     303     293
CTETRA      2722       1     292     174     441     750
CTETRA      2723       1    2982    2983    1448     119
CTETRA      2724       1    2984    2985    1445     121
CTETRA      2725       1    3369    1704    1703     981
CTETRA      2726       1    3349    1704    1705     121
CTETRA      2727       1     640       7      54       3
CTETRA      2728       1    2992    1443    1449    1047
CTETRA      2729       1    2976    3355    1695     238
CTETRA      2730       1    3040    3041    1485     237
CTETRA      2731       1    1445    1654    1447     314
CTETRA      2732       1    2981    1448    1441     119
CTETRA      2733       1     505       7     295     506
CTETRA      2734       1     847     505     295     506
CTETRA      2735       1    3500     290     289       4
CTETRA      2736       1     408     710     278     640
CTETRA      2737       1    2670    2676    2683    1167
CTETRA      2738       1     710      75     640     748
CTETRA      2739       1    1425     634    1043     831
CTETRA      2740       1      58     640      54       3
CTETRA      2741       1     408     640     278     291
CTETRA      2742       1    3864    3534    3865    1727
CTETRA      2743       1    3797    1418    3798    2670
CTETRA      2744       1    2761    1032    2785    1099
CTETRA      2745       1     271    1168     272     288
CTETRA      2746       1     290    1168    1140     288
CTETRA      2747       1    1405    2781    1408    1094
CTETRA      2748       1    3138    3139    1566     566
CTETRA      2749       1    2761    2791    2785    1032
CTETRA      2750       1    1388    1391    2714     624
CTETRA      2751       1    2617     929    2627     829
CTETRA      2752       1    1392    1393    1396    1099
CTETRA      2753       1     380    1140     288     289
CTETRA      2754       1      30     843     718     639
CTETRA      2755       1    3973    3733    3723    1298
CTETRA      2756       1    3723    1298    1010    1101
CTETRA      2757       1    3723    1010    3724    1101
CTETRA      2758       1     408     291     278     273
CTETRA      2759       1     277     279     288     289
CTETRA      2760       1     279     682     288     289
CTETRA      2761       1    3883    3884    1379    2747
CTETRA      2762       1    1169     601     664     600
CTETRA      2763       1     640     291     506       3
CTETRA      2764       1    1375     928    2597     405
CTETRA      2765       1      31     711     639     506
CTETRA      2766       1     500     528     494     495
CTETRA      2767       1    2825    1003     781     782
CTETRA      2768       1    2666    2668    2667    1004
CTETRA      2769       1    3775    1369    1366    2668
CTETRA      2770       1    2279     673    2285     528
CTETRA      2771       1    3774    2658    1369    2668
CTETRA      2772       1    1302    1303    2396     983
CTETRA      2773       1    3656    3657    1303    2396
CTETRA      2774       1    2284    2285     527     528
CTETRA      2775       1     581     578     582     577
CTETRA      2776       1    3102    1546     606     528
CTETRA      2777       1     826     500     527     528
CTETRA      2778       1    3102     606    2279     528
CTETRA      2779       1    2279     606     673     528
CTETRA      2780       1    1170     234     239     235
CTETRA      2781       1    3755    1292    3756    2588
CTETRA      2782       1    1132     374     234     235
CTETRA      2783       1    3039    1132    1170     507
CTETRA      2784       1    1484     510    1132     507
CTETRA      2785       1    2980    3352    2981     547
CTETRA      2786       1    1484     450     510     507
CTETRA      2787       1    1484     452     450     507
CTETRA      2788       1    3067    1258    1115     206
CTETRA      2789       1    3067    1115    1521     206
CTETRA      2790       1     510     374     507     377
CTETRA      2791       1    3109     663     659     666
CTETRA      2792       1    3525    2290     519    1148
CTETRA      2793       1    1594     667     663     666
CTETRA      2794       1    2955    3725    3726     332
CTETRA      2795       1    3170     847     927     411
CTETRA      2796       1    3170     927    2336     411
CTETRA      2797       1     410     847     411     328
CTETRA      2798       1    3571    2331    2337     411
CTETRA      2799       1    1056    1121     247     627
CTETRA      2800       1    3031    3032    1473     981
CTETRA      2801       1    1697    1698    1700     234
CTETRA      2802       1    3144    3145    1557     308
CTETRA      2803       1    1163     733     732     202
CTETRA      2804       1    3372    1700    1698    1132
CTETRA      2805       1    2336     927    2337     411
CTETRA      2806       1    3528    2308    2309     906
CTETRA      2807       1    3396    1725     849     322
CTETRA      2808       1     927     411     847     328
CTETRA      2809       1    3395    3396    3529     514
CTETRA      2810       1     927     847     505     328
CTETRA      2811       1    3571    2337     368     411
CTETRA      2812       1    2330      31     927     711
CTETRA      2813       1     927     368     411     372
CTETRA      2814       1    3491    3492    2305     367
CTETRA      2815       1    3396    3531    3530     322
CTETRA      2816       1       5       1       7       3
CTETRA      2817       1    1430     621     431     620
CTETRA      2818       1    3170     749     927     847
CTETRA      2819       1    1436     431    1440     616
CTETRA      2820       1    3356    1691    1693     100
CTETRA      2821       1    2976    3355    3354    1695
CTETRA      2822       1     977     619     618     431
CTETRA      2823       1     618     431     619     620
CTETRA      2824       1     110    1016     111     133
CTETRA      2825       1    1437     395    1440     431
CTETRA      2826       1    1430    2678     621     620
CTETRA      2827       1    1430     431    1433     620
CTETRA      2828       1    1433    1436    2612     620
CTETRA      2829       1    3293    3294    2928    1614
CTETRA      2830       1     199     772     210     773
CTETRA      2831       1     822     736     712     860
CTETRA      2832       1    3276    2921    2920    1613
CTETRA      2833       1    1764     858    1779     898
CTETRA      2834       1     765     770     769     771
CTETRA      2835       1    3085     766     856     771
CTETRA      2836       1     900     902     879     112
CTETRA      2837       1    3086    1528    1531     856
CTETRA      2838       1    3084    2258    3085     771
CTETRA      2839       1    3085     856    1531    1067
CTETRA      2840       1     430    1057    1121     244
CTETRA      2841       1    1056    1121    1057     244
CTETRA      2842       1    3915    1435    1432    2739
CTETRA      2843       1    3963    3964    2882     395
CTETRA      2844       1    2942    2943    1249    1171
CTETRA      2845       1     247    1121     924     627
CTETRA      2846       1     563    1045    1056     564
CTETRA      2847       1    2203    2204     179     650
CTETRA      2848       1    1056     247     625     627
CTETRA      2849       1     430     251    1057     244
CTETRA      2850       1     249     203     251     564
CTETRA      2851       1    1685    1686    1688     901
CTETRA      2852       1     631    1056     560     625
CTETRA      2853       1    2622    2626    2623    1110
CTETRA      2854       1     629     562    1056    1057
CTETRA      2855       1    2364     535    2374     536
CTETRA      2856       1    2115    2379    2380     536
CTETRA      2857       1    2127    2516     688     536
CTETRA      2858       1    2127     688    2128     536
CTETRA      2859       1    2128     688    2365     536
CTETRA      2860       1    2364    2365     688     536
CTETRA      2861       1    3251     113    3252     146
CTETRA      2862       1     274     275     137     193
CTETRA      2863       1    3924    2218    2221    2813
CTETRA      2864       1     109     363     275     383
CTETRA      2865       1    2394     842     983     266
CTETRA      2866       1    3456    3964     783     530
CTETRA      2867       1    1686     182     903     901
CTETRA      2868       1    3803    2610    1433    2612
CTETRA      2869       1      12     388     138     139
CTETRA      2870       1    3442     200    3443     792
CTETRA      2871       1     139     130     137     275
CTETRA      2872       1    3742    1329    1330    2506
CTETRA      2873       1    3587     468     455     457
CTETRA      2874       1    3586    2036    2051     468
CTETRA      2875       1    3255    2051     595     455
CTETRA      2876       1    3320    3321    3426    1630
CTETRA      2877       1     659    1100     600     162
CTETRA      2878       1    1296     961    2488    1010
CTETRA      2879       1    3725    2489    2490    1011
CTETRA      2880       1    2051     595     455     468
CTETRA      2881       1    1222     578     582      50
CTETRA      2882       1     410     412     705     328
CTETRA      2883       1     847     505     328     752
CTETRA      2884       1     749     847     295     506
CTETRA      2885       1    2740    2766    2741     400
CTETRA      2886       1    2742    1143    1142     804
CTETRA      2887       1     749     295     640     506
CTETRA      2888       1     476     503     504     706
CTETRA      2889       1     476     504     367     706
CTETRA      2890       1    2432    2439    2442     444
CTETRA      2891       1    3601    2352    2348     695
CTETRA      2892       1     504     908     505       7
CTETRA      2893       1     504     908     367     706
CTETRA      2894       1     847     295     505     752
CTETRA      2895       1    2363    2374    2364     535
CTETRA      2896       1    2362    2373    2371     474
CTETRA      2897       1     991     836     988    1051
CTETRA      2898       1    2505    2514    2507     472
CTETRA      2899       1    2507    2518    2517     474
CTETRA      2900       1     276     508      57     509
CTETRA      2901       1     276      57     685     279
CTETRA      2902       1    3500     380    3501       2
CTETRA      2903       1    3562    3878    3563     277
CTETRA      2904       1    3320    3425     867     892
CTETRA      2905       1    1691    1693     100     236
CTETRA      2906       1    1692     371    1694     236
CTETRA      2907       1      99     116     236      97
CTETRA      2908       1    1960    1975      72     141
CTETRA      2909       1    3580    1960      68     141
CTETRA      2910       1     522     483     479      73
CTETRA      2911       1     522     521     483      73
CTETRA      2912       1      72      68     141      16
CTETRA      2913       1    2505    2506    2560    1023
CTETRA      2914       1    1976     141      66     142
CTETRA      2915       1     140     136     479     142
CTETRA      2916       1     141     479     483      73
CTETRA      2917       1    3859    3544    3543     968
CTETRA      2918       1    3860    3541    3861    1007
CTETRA      2919       1    3582    1990     141     142
CTETRA      2920       1    2366      80    2383     537
CTETRA      2921       1    3389    3518     285    1139
CTETRA      2922       1    2530     263      81     475
CTETRA      2923       1    3152    2292    2296     568
CTETRA      2924       1    1284     573    2499    1000
CTETRA      2925       1    2383      80    1097     537
CTETRA      2926       1    2070    2072     263    1172
CTETRA      2927       1    2072    2526     263    1172
CTETRA      2928       1    2521     263    2530     475
CTETRA      2929       1    3321    3427    3426    1173
CTETRA      2930       1    2525    2526    1097     263
CTETRA      2931       1    2200    2204    2203     650
CTETRA      2932       1    2206    2810    2790     179
CTETRA      2933       1    2653    2654    2663     697
CTETRA      2934       1    2525    1097      80     263
CTETRA      2935       1     138     449     451     116
CTETRA      2936       1     238      98      96      97
CTETRA      2937       1     115     138     134      95
CTETRA      2938       1    2622     954    2642    1092
CTETRA      2939       1     115     388     379     130
CTETRA      2940       1    2150    2154    2153     311
CTETRA      2941       1    2853     311    2859    1158
CTETRA      2942       1    3945    3946    2154    2859
CTETRA      2943       1    2502    2503    1155     688
CTETRA      2944       1    2113    2127    2128     536
CTETRA      2945       1     115     138     388     130
CTETRA      2946       1    3707    2127    2114    2516
CTETRA      2947       1    3706    2502    2127    2516
CTETRA      2948       1     138     134     451     133
CTETRA      2949       1    1019     108     407     399
CTETRA      2950       1     559     108     549     393
CTETRA      2951       1    3340    3473    3472     881
CTETRA      2952       1    1017     407    1019     108
CTETRA      2953       1     716     608     856     808
CTETRA      2954       1    3072    1252    1251    1031
CTETRA      2955       1    3583     136    2005     142
CTETRA      2956       1    3585    2035    2020     678
CTETRA      2957       1     760     715     717     808
CTETRA      2958       1    2587     524    1116    1000
CTETRA      2959       1    2034    2035    2050     456
CTETRA      2960       1    2018    2019    2034     678
CTETRA      2961       1     719     608     762     808
CTETRA      2962       1     462     357     645     648
CTETRA      2963       1     643     645     648     334
CTETRA      2964       1     333     948     157     334
CTETRA      2965       1     643     932     644     158
CTETRA      2966       1     648     158     334     166
CTETRA      2967       1     643     645     357     648
CTETRA      2968       1     648     164     934     166
CTETRA      2969       1     160     465     161     164
CTETRA      2970       1     465     466    1152     934
CTETRA      2971       1    3580    1975    1960     141
CTETRA      2972       1     466     648    1152     934
CTETRA      2973       1    1866     730      88      90
CTETRA      2974       1    3215    1851    1850    1525
CTETRA      2975       1    1850    1866    1865      90
CTETRA      2976       1    1849    1850    1864     612
CTETRA      2977       1    3087    2256    3088     612
CTETRA      2978       1     491     889     920     921
CTETRA      2979       1    1160     890     625     921
CTETRA      2980       1    3088    1525    1529      89
CTETRA      2981       1     488     626     625     921
CTETRA      2982       1    1160     625     726     921
CTETRA      2983       1    1124     518     517     921
CTETRA      2984       1    1928    1944    1943     605
CTETRA      2985       1    3095    2277    2266     603
CTETRA      2986       1     517     518     890     921
CTETRA      2987       1    3226    1944    1551    1554
CTETRA      2988       1    2269     557     556     882
CTETRA      2989       1    1282    1286    1285     936
CTETRA      2990       1    1875    1876    1890     994
CTETRA      2991       1      22     776      60    1174
CTETRA      2992       1     493     783     499     530
CTETRA      2993       1    1919     565    1933     299
CTETRA      2994       1    3435    3436    2239     488
CTETRA      2995       1    1888    1889    1903     245
CTETRA      2996       1    1843    1532    1844    1166
CTETRA      2997       1    3091    2240    3092     865
CTETRA      2998       1      22    1090     776    1174
CTETRA      2999       1    1913     554     816     708
CTETRA      3000       1    3422    2240    2244     702
CTETRA      3001       1    3421     702    2244     228
CTETRA      3002       1    3092     865    2251     868
CTETRA      3003       1    1806    1089    1090      24
CTETRA      3004       1    1089     941    1039    1174
CTETRA      3005       1    1868    1869    1884    1042
CTETRA      3006       1    1868    1884    1883    1042
CTETRA      3007       1    1089    1039     941    1115
CTETRA      3008       1    1039      23      60    1174
CTETRA      3009       1    1175    1039      60    1174
CTETRA      3010       1    3303    2945    2944     127
CTETRA      3011       1    1848    1849    1863     717
CTETRA      3012       1    3069     995    1243     996
CTETRA      3013       1    2937    1039    1606      60
CTETRA      3014       1     143      73     102     142
CTETRA      3015       1      66      73     143     142
CTETRA      3016       1    1820    1821    1835     995
CTETRA      3017       1      72      16     141     483
CTETRA      3018       1     522     483      74     479
CTETRA      3019       1    1821    1836    1835     995
CTETRA      3020       1    3204    1835    3205    1509
CTETRA      3021       1     141     479      73     142
CTETRA      3022       1    3205    1835    1836    1509
CTETRA      3023       1     140     483     141     479
CTETRA      3024       1     113     483     521      73
CTETRA      3025       1    1762     389      61      62
CTETRA      3026       1    1608     390    1610     824
CTETRA      3027       1    2914    2915    1232      21
CTETRA      3028       1     866     353     729     863
CTETRA      3029       1    1747    1504    1748      62
CTETRA      3030       1    3302    1600    1598     127
CTETRA      3031       1    1761    1762    1776     389
CTETRA      3032       1     861     354    1077     863
CTETRA      3033       1    1730     438    1176     972
CTETRA      3034       1     861     862     354     863
CTETRA      3035       1     861     646     855     860
CTETRA      3036       1    3389    3518    3517     285
CTETRA      3037       1    3519    3520    2296    1139
CTETRA      3038       1     861    1077     646     863
CTETRA      3039       1    3869    3569    3568     413
CTETRA      3040       1     107     152     549     109
CTETRA      3041       1    1040     107     870     108
CTETRA      3042       1     388     363     384     383
CTETRA      3043       1    1790    1090    1805     128
CTETRA      3044       1    2955    1169     332     601
CTETRA      3045       1    2909    2910    1224      91
CTETRA      3046       1     968     438     999     965
CTETRA      3047       1    1734     544     965     967
CTETRA      3048       1     254     965     170     833
CTETRA      3049       1    1730    1732     285     972
CTETRA      3050       1    1732    1734    1139     972
CTETRA      3051       1     282     492     989      64
CTETRA      3052       1    1664    1676     747     749
CTETRA      3053       1    3504     282    3505      64
CTETRA      3054       1    3504     492     282      64
CTETRA      3055       1    3505     283    2291      64
CTETRA      3056       1    3561    3562    2339     408
CTETRA      3057       1    3504    2291    2314      64
CTETRA      3058       1    3170     927     749     711
CTETRA      3059       1    3568    3569     927     413
CTETRA      3060       1    3497    3813    3498     959
CTETRA      3061       1    3169    3170    1667     749
CTETRA      3062       1    1281    1286    1282     340
CTETRA      3063       1     278      58      75      59
CTETRA      3064       1    3504    3505    2291      64
CTETRA      3065       1      57      58     278      59
CTETRA      3066       1      59      77      64      56
CTETRA      3067       1    3169    2341    2330     711
CTETRA      3068       1     280      77     281     588
CTETRA      3069       1    3683    3684    1281    2353
CTETRA      3070       1    2291    2298      87     283
CTETRA      3071       1     283      59      77      64
CTETRA      3072       1      75      77      59      56
CTETRA      3073       1     508      57     836     490
CTETRA      3074       1    2999    1020     401     382
CTETRA      3075       1    1453     382     385     387
CTETRA      3076       1    3131     106    1020     387
CTETRA      3077       1    3401    1620    3402     259
CTETRA      3078       1    3401     259     346     348
CTETRA      3079       1     596     165     336     166
CTETRA      3080       1    3401    3402    2085     358
CTETRA      3081       1    3133    1657    1650     379
CTETRA      3082       1    3270    3401    2889    1621
CTETRA      3083       1     149     106     387     383
CTETRA      3084       1    2936    2937    1258    1039
CTETRA      3085       1     325     326     551     833
CTETRA      3086       1    3302    2943    2942    1171
CTETRA      3087       1     909     550     551     552
CTETRA      3088       1     909     551     326     552
CTETRA      3089       1     551     967     552     520
CTETRA      3090       1     551     833     552     967
CTETRA      3091       1     550     519     551     520
CTETRA      3092       1    1177     970     544     552
CTETRA      3093       1     601     597     664     600
CTETRA      3094       1    3302    3303    2944    1598
CTETRA      3095       1    3268    2063    2064     454
CTETRA      3096       1    2299     280     281     591
CTETRA      3097       1     968     999     969     965
CTETRA      3098       1    1012    1101    1100     600
CTETRA      3099       1    3269    1587    1583     434
CTETRA      3100       1    2952    2953     664    1101
CTETRA      3101       1    3514    3515    2302     435
CTETRA      3102       1    3268    3269    1583    1138
CTETRA      3103       1    2348    2349    2434     985
CTETRA      3104       1     161     165     163     159
CTETRA      3105       1    1011    1012     161     600
CTETRA      3106       1    2283     122     885    1178
CTETRA      3107       1    1169    1101    1011     600
CTETRA      3108       1    1925     746    1940    1178
CTETRA      3109       1    3230    1940    1541    1545
CTETRA      3110       1    1844    1532    1534    1166
CTETRA      3111       1    1033     136     735     144
CTETRA      3112       1    1109      74    1033     479
CTETRA      3113       1    1956      74     469      44
CTETRA      3114       1    3981    1460     414     379
CTETRA      3115       1    1986    1987     479      44
CTETRA      3116       1     135     140     136     479
CTETRA      3117       1    1763     898      62     823
CTETRA      3118       1     135     136    1033     479
CTETRA      3119       1    2918    1118    1235      86
CTETRA      3120       1    3192    1748    1504    1506
CTETRA      3121       1     541     727     626     920
CTETRA      3122       1     489     920     626     921
CTETRA      3123       1     486     631     625     627
CTETRA      3124       1     486     625     488     626
CTETRA      3125       1     539     487     541     626
CTETRA      3126       1    1467     308    1474     309
CTETRA      3127       1    3144    1474    1467     308
CTETRA      3128       1    3144    1557    1561     980
CTETRA      3129       1    3019    3694    3020    1165
CTETRA      3130       1    2610    2612    2611     620
CTETRA      3131       1    1420     415    2775     831
CTETRA      3132       1    3802    1433    3803    2610
CTETRA      3133       1    2025    2040     679     101
CTETRA      3134       1     980     981     230     231
CTETRA      3135       1    3884    1376    2747    2749
CTETRA      3136       1    2995    3603    3602     907
CTETRA      3137       1    3874    3875    2750      36
CTETRA      3138       1    2028     735    1133     103
CTETRA      3139       1    2027    1133    2042     103
CTETRA      3140       1    1379    1380    1384      25
CTETRA      3141       1    2338     270    2341     711
CTETRA      3142       1    2042    1133     593     103
CTETRA      3143       1    3119    3869    3568      31
CTETRA      3144       1    1350    1354    1353     815
CTETRA      3145       1    1343    1344    1347    1027
CTETRA      3146       1    2816    2827     812     814
CTETRA      3147       1     135     735     136     678
CTETRA      3148       1     135     931     735     678
CTETRA      3149       1    1353    1357     812     815
CTETRA      3150       1    1354    2631    1357     815
CTETRA      3151       1    2628     930     813    1028
CTETRA      3152       1    3139    1480    1469     956
CTETRA      3153       1    1616    1080    1077     646
CTETRA      3154       1    2885    1240    3965     866
CTETRA      3155       1     545     103     593     464
CTETRA      3156       1    3273    2925    3274    1615
CTETRA      3157       1    3274    2925    2924     197
CTETRA      3158       1     735     103     144     678
CTETRA      3159       1    1824     199     773     946
CTETRA      3160       1    2885    1236    1240     353
CTETRA      3161       1    2928     641    1614     204
CTETRA      3162       1    2925    3965    1240     866
CTETRA      3163       1    2885     353     866    1077
CTETRA      3164       1    3303    1596    2945     127
CTETRA      3165       1     735     464     103     678
CTETRA      3166       1    1765     862    1780     899
CTETRA      3167       1    3294    2930    2929     204
CTETRA      3168       1    2983    3351    3350     120
CTETRA      3169       1    1473    1474     980    1131
CTETRA      3170       1    3981     414    1463     114
CTETRA      3171       1    2969    1465    1463     114
CTETRA      3172       1    3554    2325    2323     481
CTETRA      3173       1    3035    3036    1483     647
CTETRA      3174       1    2984    3349    2985     121
CTETRA      3175       1     879     134      95     114
CTETRA      3176       1     115     117     138      95
CTETRA      3177       1    1656    1661     115     114
CTETRA      3178       1    3121      95    1661     114
CTETRA      3179       1    2983    2984    1447     120
CTETRA      3180       1    2016    2017    2032     931
CTETRA      3181       1    2955    1169    3725     332
CTETRA      3182       1    3513    3514    2300    1179
CTETRA      3183       1     862     860     736     863
CTETRA      3184       1     153     384     225     155
CTETRA      3185       1    1175    1039    1089     995
CTETRA      3186       1    1822     946    1837     206
CTETRA      3187       1    3299    2937    1606      60
CTETRA      3188       1    3298    1608    1606     824
CTETRA      3189       1    3068    1258    1259    1115
CTETRA      3190       1    1820    1089    1821     995
CTETRA      3191       1     567     870     559     875
CTETRA      3192       1     149     388     150     155
CTETRA      3193       1     106     107    1040     108
CTETRA      3194       1    3939    3940    2136    2847
CTETRA      3195       1    2142    2857    2145    1157
CTETRA      3196       1    1362     781    1363    1004
CTETRA      3197       1     224     153     225     155
CTETRA      3198       1    1040    1048     870     225
CTETRA      3199       1    2153     880     311     976
CTETRA      3200       1    2844    2849    2845     952
CTETRA      3201       1    3913    2768    1426    2777
CTETRA      3202       1    1047     216     871     225
CTETRA      3203       1     226     153     215     217
CTETRA      3204       1    3914    2768    2739     634
CTETRA      3205       1    1426    2777    2768     831
CTETRA      3206       1    1386    1390    1389    1099
CTETRA      3207       1     956     215     874     592
CTETRA      3208       1    2706    2713    2716     623
CTETRA      3209       1    3783    1345    1342    2634
CTETRA      3210       1     216     215     871     225
CTETRA      3211       1    3785    1339    2632    2633
CTETRA      3212       1     874     215     870     872
CTETRA      3213       1    1062     226     153     215
CTETRA      3214       1    2290     909    2294     551
CTETRA      3215       1     970     552     833     967
CTETRA      3216       1     321     329     326     551
CTETRA      3217       1    3266    1180    1177     910
CTETRA      3218       1     252     325     330     255
CTETRA      3219       1    3802    1430    1433    2610
CTETRA      3220       1     429     701     977     202
CTETRA      3221       1     326     833     303     552
CTETRA      3222       1     326     552     303     910
CTETRA      3223       1    2683     636     922    1043
CTETRA      3224       1    3801    1430    3802    2678
CTETRA      3225       1    1438    2882    1439     395
CTETRA      3226       1     330     329     325     324
CTETRA      3227       1     268     551     269     255
CTETRA      3228       1    3803    1436    3804    2612
CTETRA      3229       1     269     551     833     255
CTETRA      3230       1    2452    2456    2460     471
CTETRA      3231       1    2073    2074    1096     537
CTETRA      3232       1    2537     459    2538    1172
CTETRA      3233       1    3716    2537    2526    1172
CTETRA      3234       1    2538     459    1097    1172
CTETRA      3235       1    2073    1096    2076    1172
CTETRA      3236       1    2412     461     264     962
CTETRA      3237       1    2383    2413    2414     537
CTETRA      3238       1    2526    1097     263    1172
CTETRA      3239       1    3716    2526    2072    1172
CTETRA      3240       1    2534    2538    2535     459
CTETRA      3241       1    2070     263     537    1172
CTETRA      3242       1    2107     263      80     537
CTETRA      3243       1     949     652     950     649
CTETRA      3244       1    2758    2793    2759    1041
CTETRA      3245       1    3021    1469    1480     569
CTETRA      3246       1    3694    2500    3695    1000
CTETRA      3247       1    3020    3694    3695    1165
CTETRA      3248       1    3021    3695    3696    1181
CTETRA      3249       1      41     157     165     166
CTETRA      3250       1    1122     949     759     948
CTETRA      3251       1     949     950     759     649
CTETRA      3252       1     238      98     239     233
CTETRA      3253       1    1695     239    1698     234
CTETRA      3254       1    3733    1298    1296    1010
CTETRA      3255       1    3734    1296    2488    1010
CTETRA      3256       1    1697    1700     546     234
CTETRA      3257       1    1456     546     232     233
CTETRA      3258       1     507     240     374     235
CTETRA      3259       1     374     232     887     234
CTETRA      3260       1    3617    2119    2467    2468
CTETRA      3261       1    2119    2467    2468    1182
CTETRA      3262       1     310     305     780     293
CTETRA      3263       1     312     779     313     293
CTETRA      3264       1    3537    2316    2335     515
CTETRA      3265       1      45      46     312     313
CTETRA      3266       1    3990      45    3269     313
CTETRA      3267       1    3255     595    3256     104
CTETRA      3268       1    3617    2129    2119    2468
CTETRA      3269       1    3811    3812    2600    1141
CTETRA      3270       1    3875     843     270     271
CTETRA      3271       1     312     779     454     313
CTETRA      3272       1    3255     455     595     104
CTETRA      3273       1    3565    3875    3874     843
CTETRA      3274       1     478     791      57     490
CTETRA      3275       1    3266     780     463     779
CTETRA      3276       1     454     463     455     779
CTETRA      3277       1     455     313     779     305
CTETRA      3278       1    3990     455    3255     313
CTETRA      3279       1    3392    3393    3524    1148
CTETRA      3280       1     853     216     318     852
CTETRA      3281       1    1706     214     216     318
CTETRA      3282       1    3115     573    1001     875
CTETRA      3283       1    1165    1001     573     875
CTETRA      3284       1    3421    3422    2244     702
CTETRA      3285       1     591     589     614     588
CTETRA      3286       1    1183    1135      88     178
CTETRA      3287       1    3474    3475    2277     802
CTETRA      3288       1    3338     802    1632     376
CTETRA      3289       1     696    1001    1072     694
CTETRA      3290       1     696    1116    1072    1000
CTETRA      3291       1     975     701     429     251
CTETRA      3292       1    3424    3425    2251     867
CTETRA      3293       1     429     701     202     251
CTETRA      3294       1     250     245     248     249
CTETRA      3295       1     200     202     701     203
CTETRA      3296       1    3820    2223    3821    2700
CTETRA      3297       1    2301     280     443    1184
CTETRA      3298       1    2218    2813    2814     913
CTETRA      3299       1    2209     731    2213     167
CTETRA      3300       1     723    1121     733    1057
CTETRA      3301       1    3822    2220    2696    2700
CTETRA      3302       1    3295    1612    2931     195
CTETRA      3303       1     804     732     733     202
CTETRA      3304       1    3879    2842    2840     685
CTETRA      3305       1    3848    2170    2607    2660
CTETRA      3306       1    2138    1111    1110    1161
CTETRA      3307       1    3983    1587    1588    1184
CTETRA      3308       1    3941    2142    2139    2856
CTETRA      3309       1    1287    1001     936     694
CTETRA      3310       1    3393    3394    3526    1148
CTETRA      3311       1    2082    2083    2084     320
CTETRA      3312       1    3115     874    1181     875
CTETRA      3313       1    2079    2083    2082     320
CTETRA      3314       1    3115    3116     874     872
CTETRA      3315       1    1017     907     559     875
CTETRA      3316       1     874     870     875     872
CTETRA      3317       1     874     870     919     569
CTETRA      3318       1    1165     567     875     569
CTETRA      3319       1    1019     407    1018     399
CTETRA      3320       1    2762    2860    1099     828
CTETRA      3321       1    2860    1026     929     828
CTETRA      3322       1    1941    1942    1553    1055
CTETRA      3323       1    1926    1927    1941    1055
CTETRA      3324       1    3319    3425    3424     867
CTETRA      3325       1    3097     713    1552     605
CTETRA      3326       1    1552     713    1553    1055
CTETRA      3327       1    1386    1390    1099     828
CTETRA      3328       1    1927    1928    1942     605
CTETRA      3329       1     730     229     175     817
CTETRA      3330       1    1335    1386     829     828
CTETRA      3331       1    3330    1640    3490     768
CTETRA      3332       1    3328    3450    3329    1641
CTETRA      3333       1     426     419     444     421
CTETRA      3334       1    3450    3451    2279     607
CTETRA      3335       1    2916    2917    1129      86
CTETRA      3336       1    3192    1748    1747    1504
CTETRA      3337       1     623     829    1099     828
CTETRA      3338       1    1746    1505    1747      61
CTETRA      3339       1     401     398     670     381
CTETRA      3340       1    1775    1013    1776    1090
CTETRA      3341       1    1118     739     898      86
CTETRA      3342       1     445     974     398     399
CTETRA      3343       1     406     399     393     394
CTETRA      3344       1    1185     446     407     399
CTETRA      3345       1     261     358     262     360
CTETRA      3346       1    3338    3474    3339     802
CTETRA      3347       1     538    1186     728     542
CTETRA      3348       1    1781    1782    1796     344
CTETRA      3349       1    1185     445     446     399
CTETRA      3350       1     406    1074     570     407
CTETRA      3351       1    1768    1783    1782     655
CTETRA      3352       1    2886    2887     353    1077
CTETRA      3353       1    1782    1783    1797    1122
CTETRA      3354       1    3050    1501    1494     512
CTETRA      3355       1     401     987     670     398
CTETRA      3356       1     939     161    1012     162
CTETRA      3357       1     161     600    1012     162
CTETRA      3358       1    1798    1813    1812    1071
CTETRA      3359       1     861     786     855     646
CTETRA      3360       1    1187     260     342     964
CTETRA      3361       1    1617    1618    1619    1076
CTETRA      3362       1    1756     916      17     602
CTETRA      3363       1    3109    1298    1101    1100
CTETRA      3364       1    2898     938    3642     940
CTETRA      3365       1    1741    1495    1498      18
CTETRA      3366       1    3044    3376    3045     453
CTETRA      3367       1    2898    2899     756     940
CTETRA      3368       1    3186    3187    1742    1499
CTETRA      3369       1    3288    2901    2900     583
CTETRA      3370       1    3110     583    2899     940
CTETRA      3371       1    3563    2338    2339     408
CTETRA      3372       1    3110     659     583     940
CTETRA      3373       1     163     600     597     165
CTETRA      3374       1    3048     903     182     183
CTETRA      3375       1    3048    1490    1489     183
CTETRA      3376       1    3119    1722    3869      31
CTETRA      3377       1    1379    2747      36      26
CTETRA      3378       1    2980    1441    1457     547
CTETRA      3379       1    3245    1561    1557     980
CTETRA      3380       1    3046     903    3047     183
CTETRA      3381       1    3045     903    3046     183
CTETRA      3382       1    1833    1512    1514    1107
CTETRA      3383       1    1489    1490     111     183
CTETRA      3384       1    3149     111    1016     183
CTETRA      3385       1    3175    1006    2319     253
CTETRA      3386       1    2605    1188    1186     533
CTETRA      3387       1    3149    1489     111     183
CTETRA      3388       1    1699     547     546     887
CTETRA      3389       1    3172    3173    1670     846
CTETRA      3390       1    1725     849     322     327
CTETRA      3391       1    1701     378     547     887
CTETRA      3392       1    2970    3358    1689     879
CTETRA      3393       1    3153    2295     550    1177
CTETRA      3394       1    3384    3509    1715     614
CTETRA      3395       1    1699    1701     547     887
CTETRA      3396       1    3170    2336    3171     411
CTETRA      3397       1    3158    2305    2311     367
CTETRA      3398       1    1700     647    1702     887
CTETRA      3399       1    3532    2332    2333     410
CTETRA      3400       1    3045    3376    3377    1690
CTETRA      3401       1    1991     677    2006     136
CTETRA      3402       1    3488    2280    2282      32
CTETRA      3403       1    2931    1612    2932     196
CTETRA      3404       1      21      24      23      61
CTETRA      3405       1    1991     143     677     136
CTETRA      3406       1    2006     136     677     678
CTETRA      3407       1    2020     135     136     678
CTETRA      3408       1    3297    2934    2933    1610
CTETRA      3409       1    3065    1257     947     772
CTETRA      3410       1     677     136     144     678
CTETRA      3411       1    2004    2005    2020     136
CTETRA      3412       1    3280    2913    3281    1603
CTETRA      3413       1    3250     113    3251     146
CTETRA      3414       1    3249     521    3250      71
CTETRA      3415       1    1950     521    1951      73
CTETRA      3416       1    1951     522    1966      73
CTETRA      3417       1    3282    2910    2909    1599
CTETRA      3418       1    3248     523    1952     521
CTETRA      3419       1     113     521      16     146
CTETRA      3420       1    3248     521    3249      71
CTETRA      3421       1    3502    2314    2313       2
CTETRA      3422       1    1952     523     522     521
CTETRA      3423       1    3567    2330      30      31
CTETRA      3424       1    3160    2312    3161       1
CTETRA      3425       1    3500    2313    2312       2
CTETRA      3426       1    3257    3258    1580      53
CTETRA      3427       1     545     595     593     594
CTETRA      3428       1    1581      76      55      87
CTETRA      3429       1    1629    1147     905    1189
CTETRA      3430       1    3558    3559    2317     990
CTETRA      3431       1    3257    1580    1581      53
CTETRA      3432       1    3322    1623    3430    1189
CTETRA      3433       1    3258    2053    2054     594
CTETRA      3434       1    3428    1190    1147    1189
CTETRA      3435       1    3304    1590    2947    1083
CTETRA      3436       1    2028    2044    2043    1133
CTETRA      3437       1    1596     129     577    1083
CTETRA      3438       1    3262    2057    2058     778
CTETRA      3439       1     184     170     174     750
CTETRA      3440       1     170     174     441     437
CTETRA      3441       1    2953    1169     664    1101
CTETRA      3442       1    3258     304    1582      53
CTETRA      3443       1    3807    3808    2653     686
CTETRA      3444       1    1596     127     129    1083
CTETRA      3445       1    3584    2006    3585     678
CTETRA      3446       1    3257    2052    2053     595
CTETRA      3447       1    3267    2062    2063     463
CTETRA      3448       1     577    1087    1083    1082
CTETRA      3449       1     356     613     590     173
CTETRA      3450       1    2945    1085     127    1083
CTETRA      3451       1    1444     853    1446     852
CTETRA      3452       1      94     883     150     117
CTETRA      3453       1    3249    1950    3250     521
CTETRA      3454       1    3248    1952    1951     521
CTETRA      3455       1    3128    3129    1647     317
CTETRA      3456       1    1648    1649     148    1064
CTETRA      3457       1    3034    1702    3035     309
CTETRA      3458       1    2945    2946    1085    1083
CTETRA      3459       1    2974    3355    2975     238
CTETRA      3460       1    3228    1942    1552    1553
CTETRA      3461       1    2945     127    1596    1083
CTETRA      3462       1    1589     577    1596     129
CTETRA      3463       1    1590    1596     577    1083
CTETRA      3464       1     315     221     230     222
CTETRA      3465       1     704     973    1191     741
CTETRA      3466       1    3229    1541    1941    1553
CTETRA      3467       1     883     154     240     374
CTETRA      3468       1    1701     119     547     378
CTETRA      3469       1     883     374     240     232
CTETRA      3470       1    3230    3231    1940    1545
CTETRA      3471       1     647     374     309     887
CTETRA      3472       1    1923    1924    1938     825
CTETRA      3473       1    3231    3232    1939    1544
CTETRA      3474       1    3232    1938    1939    1544
CTETRA      3475       1      32      34    1037      35
CTETRA      3476       1     547     378      52     887
CTETRA      3477       1    3173     846    2334     257
CTETRA      3478       1    1678     969     252     257
CTETRA      3479       1    2334     515    2335     257
CTETRA      3480       1    3220    1845    1844    1534
CTETRA      3481       1    3175    2316    1006     257
CTETRA      3482       1    3175    2316    2320    1006
CTETRA      3483       1    3175    1006     253     257
CTETRA      3484       1     751     752     302     297
CTETRA      3485       1     515     329     268     255
CTETRA      3486       1    2316    2335     515     257
CTETRA      3487       1    3902    1396    1393    2785
CTETRA      3488       1    1396    2784    1399    1034
CTETRA      3489       1    3901    2762    2785    1099
CTETRA      3490       1     254     253     833     255
CTETRA      3491       1     267     257     515     255
CTETRA      3492       1    2316     267    1006     257
CTETRA      3493       1    3900    3901    1390    2762
CTETRA      3494       1    2783    2784    2791    1034
CTETRA      3495       1     918     748     297     294
CTETRA      3496       1     640     295     748     294
CTETRA      3497       1    3898    2867    2863    1026
CTETRA      3498       1    3897    1340    2866    2867
CTETRA      3499       1     749     844     640     748
CTETRA      3500       1     749     748     295     297
CTETRA      3501       1     832     750     709     297
CTETRA      3502       1     709     918     710     748
CTETRA      3503       1     519     269     268     551
CTETRA      3504       1    1729     329     515     513
CTETRA      3505       1     519    1148     268     269
CTETRA      3506       1    3969    1239    1240     736
CTETRA      3507       1    2885    2886    1236     353
CTETRA      3508       1    2290     519     906     551
CTETRA      3509       1    1729     329     906     268
CTETRA      3510       1    3272    2885    1616    1077
CTETRA      3511       1    2909    1599    2910      92
CTETRA      3512       1    3282    2909    3283    1599
CTETRA      3513       1    1731     268    1148     269
CTETRA      3514       1    3149    1489    3982     111
CTETRA      3515       1    3047    3048    1489     183
CTETRA      3516       1    3047    1688    3048     903
CTETRA      3517       1    3114    1710    3115    1046
CTETRA      3518       1    3047    3378    3048    1688
CTETRA      3519       1    2953    1169    2954     601
CTETRA      3520       1    3379    1686    1680     182
CTETRA      3521       1     414     379     134     114
CTETRA      3522       1    3048    3378    3379    1686
CTETRA      3523       1    2606    1186     538     533
CTETRA      3524       1     214     873     216     215
CTETRA      3525       1    1106     873     214     215
CTETRA      3526       1    3316    3419    3418    1635
CTETRA      3527       1    1706    1708    1707     216
CTETRA      3528       1    3425    2251     867    1192
CTETRA      3529       1    1707     873     851     216
CTETRA      3530       1    2986     121    3349     318
CTETRA      3531       1    1095     978     231     222
CTETRA      3532       1      16     146      10      20
CTETRA      3533       1     224     221     223     217
CTETRA      3534       1     316     224     960     155
CTETRA      3535       1    3315    3417    3416    1636
CTETRA      3536       1     240     154      13     374
CTETRA      3537       1    3724    3725    1169    1011
CTETRA      3538       1    2983     119    3351     120
CTETRA      3539       1     121     222     318     223
CTETRA      3540       1    3857    3547    3546     438
CTETRA      3541       1    2984    1445    1447     121
CTETRA      3542       1     230     221     374     375
CTETRA      3543       1    3129    1449    1443    1048
CTETRA      3544       1    2982    3351    2983     119
CTETRA      3545       1    2917    2918    1235      86
CTETRA      3546       1    3277    2919    2918    1609
CTETRA      3547       1     316     957     221     154
CTETRA      3548       1    1006     267     269     255
CTETRA      3549       1    2182    2186    2185    1029
CTETRA      3550       1    3936    3937    2182    2870
CTETRA      3551       1    3936    2870    2185    2871
CTETRA      3552       1    3892    1355    2826    2827
CTETRA      3553       1    1407    1411     418    1022
CTETRA      3554       1    3894    1346    1349     814
CTETRA      3555       1    2628    2629    2635    1028
CTETRA      3556       1    2641     212    2647     213
CTETRA      3557       1    1363    2667    2636    2669
CTETRA      3558       1    2816     812    2843     814
CTETRA      3559       1    2830    2831    2832    1005
CTETRA      3560       1    1065    1094     442    1022
CTETRA      3561       1    1348    2635    1351    1028
CTETRA      3562       1    2816    2826    2825     782
CTETRA      3563       1    2620    2629    2621     812
CTETRA      3564       1    1359     781    1362     782
CTETRA      3565       1    1401     442    1094    1022
CTETRA      3566       1    1156     417     418    1022
CTETRA      3567       1    1156     417    1193     418
CTETRA      3568       1    1352     781    1356     782
CTETRA      3569       1    2204    2205     307     650
CTETRA      3570       1    2725    2728    2731    1194
CTETRA      3571       1    1403    1407     417    1022
CTETRA      3572       1    1396    1099    2785    1034
CTETRA      3573       1    1404    1094    1408    1022
CTETRA      3574       1    3584    1991    2006     136
CTETRA      3575       1    2786    1065    1156    1022
CTETRA      3576       1    1401    1094    1404    1022
CTETRA      3577       1    3910    3911    1420    2778
CTETRA      3578       1    1403    2720    2721    1022
CTETRA      3579       1     270     272     291     273
CTETRA      3580       1     277     288     684     273
CTETRA      3581       1       2      58       3     289
CTETRA      3582       1     271     687    1168     288
CTETRA      3583       1    1140    1168    1195     288
CTETRA      3584       1    2717    2720    2718    1156
CTETRA      3585       1    2799    2800    2803    1193
CTETRA      3586       1    2718    2727    2726    1156
CTETRA      3587       1    2805    2808    2807     834
CTETRA      3588       1     380     682     279     289
CTETRA      3589       1    2698    2702    2701     834
CTETRA      3590       1    2697    2698    2701     834
CTETRA      3591       1    2774    2798    2804     922
CTETRA      3592       1     655     352     347     343
CTETRA      3593       1     654     656     512     347
CTETRA      3594       1     391     346     260     652
CTETRA      3595       1    3782    2635    1348    1028
CTETRA      3596       1    2628    2635    2634    1028
CTETRA      3597       1     949     656     950     652
CTETRA      3598       1    1339    2632    2633     830
CTETRA      3599       1    1338    1339    1342     830
CTETRA      3600       1    1341    1345    1344    1028
CTETRA      3601       1    2622     955     954    1092
CTETRA      3602       1    2504     688     535     471
CTETRA      3603       1    2505    2560    2559    1023
CTETRA      3604       1     628     924    1121     627
CTETRA      3605       1     247    1121     246     924
CTETRA      3606       1     247     924     246     726
CTETRA      3607       1    3743    1317    3744    2560
CTETRA      3608       1     629    1056     631     627
CTETRA      3609       1    2486    2487    2548     467
CTETRA      3610       1    1160     625     247     726
CTETRA      3611       1    3641    3642    2356     940
CTETRA      3612       1     630     538     540     484
CTETRA      3613       1    1154    1153     461    1196
CTETRA      3614       1     939    1012     287    1100
CTETRA      3615       1    2487    2488    2546     961
CTETRA      3616       1    2386    1162    2410    1196
CTETRA      3617       1    2409    1154     461    1196
CTETRA      3618       1    1799     596    1814    1071
CTETRA      3619       1    2487    2548     467    1153
CTETRA      3620       1     423     426     445     433
CTETRA      3621       1    2092    2493     419     422
CTETRA      3622       1    2590     420     419     422
CTETRA      3623       1    2386     962    1162    1196
CTETRA      3624       1    3608    2424    2097     421
CTETRA      3625       1    1624    1626     126     944
CTETRA      3626       1    3431    3432     893     944
CTETRA      3627       1    3654    1300    2407    2411
CTETRA      3628       1    3655    2387    1300    2411
CTETRA      3629       1    3516    3517    2303     284
CTETRA      3630       1    3388    3517    3516     284
CTETRA      3631       1    3262    3263     558     780
CTETRA      3632       1    3325     491    3433     944
CTETRA      3633       1    3475    3476    2277     802
CTETRA      3634       1    3325    1624    1628     944
CTETRA      3635       1    3324    3433    3432     944
CTETRA      3636       1    3765     630    3766     628
CTETRA      3637       1     893     491     126     944
CTETRA      3638       1    2231    2232    2235    1188
CTETRA      3639       1    3433     893     491    1124
CTETRA      3640       1    2674    2679    2675     653
CTETRA      3641       1    2205    2675    2208     653
CTETRA      3642       1    3433     491     893     944
CTETRA      3643       1    3468    1197    1625     926
CTETRA      3644       1    3465    3466     124    1197
CTETRA      3645       1    1625    1627     126    1197
CTETRA      3646       1    3343    3466    3344    1197
CTETRA      3647       1    2754    2837    2842     837
CTETRA      3648       1      47     126    1197     926
CTETRA      3649       1    2174    2178    2177    1051
CTETRA      3650       1    3467    3468      47    1197
CTETRA      3651       1      47     126     124    1197
CTETRA      3652       1    2988    3348    3347     852
CTETRA      3653       1    3089    1135     178      90
CTETRA      3654       1    3396    3529     514     322
CTETRA      3655       1    1852    1537     178      90
CTETRA      3656       1      88    1135      89      90
CTETRA      3657       1    1850    1865      89      90
CTETRA      3658       1    3214    1851    1525    1537
CTETRA      3659       1    3058    3059    1493    1015
CTETRA      3660       1    1851    1525    1537      90
CTETRA      3661       1    3195    1826    1827    1510
CTETRA      3662       1    1850      89    1525      90
CTETRA      3663       1    2898    1219    1230     756
CTETRA      3664       1    3022    3023    1469     874
CTETRA      3665       1    3089      89    1135      90
CTETRA      3666       1      38     349     351     360
CTETRA      3667       1     331     462    1151     648
CTETRA      3668       1    3871    2177    2178    1051
CTETRA      3669       1    3053    1230    1219      18
CTETRA      3670       1    2861    2862    2879     930
CTETRA      3671       1     933     648     466     934
CTETRA      3672       1     260     261     262     360
CTETRA      3673       1    1717     283     989     613
CTETRA      3674       1     342     964     644     948
CTETRA      3675       1    3870    2176    3882    1051
CTETRA      3676       1    3055    1499    1498     602
CTETRA      3677       1    2137    2138    1110    1161
CTETRA      3678       1    3050    1218    3051     654
CTETRA      3679       1    3579    3988    1555    1556
CTETRA      3680       1     643     158     644     334
CTETRA      3681       1     361     357     643     360
CTETRA      3682       1    2627     829     929     830
CTETRA      3683       1    2371    2372     689     474
CTETRA      3684       1    3018    3692    3019     570
CTETRA      3685       1    1345    2634    1028     830
CTETRA      3686       1    2627    2632     829     830
CTETRA      3687       1     930     929    1026     830
CTETRA      3688       1    3709    2117    2111    2511
CTETRA      3689       1    1342    2633    2634     830
CTETRA      3690       1    2627    2633    2632     830
CTETRA      3691       1    2374    2375    2381     690
CTETRA      3692       1      45      46     440     441
CTETRA      3693       1    2113    2114    2127     536
CTETRA      3694       1    2113    2379    2115     536
CTETRA      3695       1     292     750     441     303
CTETRA      3696       1     434     436    1138     441
CTETRA      3697       1    2363     471    2456     472
CTETRA      3698       1     170     436     441     303
CTETRA      3699       1    2364     688     535     536
CTETRA      3700       1    1138     441     436     303
CTETRA      3701       1    2898    3641    2899     940
CTETRA      3702       1    3623    2115    2113    2379
CTETRA      3703       1    1815    1830    1829    1198
CTETRA      3704       1    3403    1187    3732     351
CTETRA      3705       1    3403    1187     351     261
CTETRA      3706       1    1609    1610    1612     739
CTETRA      3707       1    2125    2462    2128    1155
CTETRA      3708       1    3403     259     345    1187
CTETRA      3709       1    2126    2128    2127    1155
CTETRA      3710       1    3621    3622    2128    2461
CTETRA      3711       1    3825    2208    2675     653
CTETRA      3712       1    1986    1033      74     479
CTETRA      3713       1    2115    2380    2116     534
CTETRA      3714       1    3625    3626    2116    2380
CTETRA      3715       1    1274    2443    2447     672
CTETRA      3716       1    2077    2405    2089    1096
CTETRA      3717       1    3403     259    1187     261
CTETRA      3718       1    3347    1706    1707     852
CTETRA      3719       1    3403     351    2081     261
CTETRA      3720       1    3401    3402     358     262
CTETRA      3721       1    2081    2085     261     359
CTETRA      3722       1     567     559     549     393
CTETRA      3723       1    3401     259    3402     262
CTETRA      3724       1    2078    2089    2344     979
CTETRA      3725       1      46     292     440     441
CTETRA      3726       1    3583    2005    1990     142
CTETRA      3727       1     481     356     590     173
CTETRA      3728       1      87      64      77      56
CTETRA      3729       1    2132    1161    2181    1199
CTETRA      3730       1    3007    3361    3360    1679
CTETRA      3731       1     443     181     440     614
CTETRA      3732       1    3970    1266     572     208
CTETRA      3733       1      45     441     440     437
CTETRA      3734       1    3139    1469    3140     956
CTETRA      3735       1     170     441     436     437
CTETRA      3736       1     280     443    1184     440
CTETRA      3737       1     918     292     174      77
CTETRA      3738       1    3591    1766    1781     861
CTETRA      3739       1     254     253     965     833
CTETRA      3740       1    3541    2319    1007     966
CTETRA      3741       1    3175    3176    1678     969
CTETRA      3742       1    2321     968    2322     969
CTETRA      3743       1     951    1145     430     246
CTETRA      3744       1    2775    2798     922     415
CTETRA      3745       1    2322     969     968     999
CTETRA      3746       1    1789    1790    1804     128
CTETRA      3747       1    3543     968    2321     966
CTETRA      3748       1    3109    1101     659    1100
CTETRA      3749       1    1878    1879     810     717
CTETRA      3750       1    3312    1149    3412      82
CTETRA      3751       1    2319     966    2321     969
CTETRA      3752       1    3454     527     529     495
CTETRA      3753       1    3975    3455    3454     530
CTETRA      3754       1     698     530     783     700
CTETRA      3755       1    3111    3964    3975     530
CTETRA      3756       1    3455    3456     493     530
CTETRA      3757       1     753     295     847     752
CTETRA      3758       1     918     750     292     297
CTETRA      3759       1    1790    1791    1805    1090
CTETRA      3760       1     331    1151      40     648
CTETRA      3761       1     640     748      75     294
CTETRA      3762       1     844     291     711     506
CTETRA      3763       1     710     278     640      75
CTETRA      3764       1     951     430    1121     246
CTETRA      3765       1    1122     333     342     948
CTETRA      3766       1      38     351    1187     360
CTETRA      3767       1    3111    3918    3975    3964
CTETRA      3768       1     361     260     391     262
CTETRA      3769       1     260     644     964     360
CTETRA      3770       1    3405     489    3406     541
CTETRA      3771       1    3607    3608    2096    2425
CTETRA      3772       1     649     157     948     334
CTETRA      3773       1    1974    1989    1988     140
CTETRA      3774       1    1883    1899    1898    1112
CTETRA      3775       1     643     645     644     360
CTETRA      3776       1    3013    3996     432     878
CTETRA      3777       1     927     503     505     506
CTETRA      3778       1     959     409     718     639
CTETRA      3779       1    3169    3170     749     711
CTETRA      3780       1    2623    2646    1110    1161
CTETRA      3781       1    3583    1976    1991     142
CTETRA      3782       1    2998    2999    1452    1020
CTETRA      3783       1    3381    1684    3996     911
CTETRA      3784       1    2507    2514     474     472
CTETRA      3785       1    3169     749    1667     844
CTETRA      3786       1    2338     844     408     711
CTETRA      3787       1      30     711     270     639
CTETRA      3788       1    3565      30    2341     270
CTETRA      3789       1    3565      30     270     843
CTETRA      3790       1    3093     868    2250     896
CTETRA      3791       1    1891     715    1892     827
CTETRA      3792       1    3169     844    2338     711
CTETRA      3793       1    3059      21    1232      61
CTETRA      3794       1    3278    2918    2917    1607
CTETRA      3795       1    2341     270      30     711
CTETRA      3796       1    2330    2341      30     711
CTETRA      3797       1    1487    1105     188     878
CTETRA      3798       1    2901    1225     583      49
CTETRA      3799       1    3719    2086    3720    2544
CTETRA      3800       1     980     981    1131     230
CTETRA      3801       1     150     155     388      14
CTETRA      3802       1    3142    1471    3143     231
CTETRA      3803       1    2126    2502    2561    1155
CTETRA      3804       1    1017     695    1018     407
CTETRA      3805       1    3292    2966    1616    1080
CTETRA      3806       1    3066    1257    1261     947
CTETRA      3807       1     227     155      13      14
CTETRA      3808       1     853     318     216     223
CTETRA      3809       1     214     222     231     217
CTETRA      3810       1    1700     887     546     234
CTETRA      3811       1    3825    2679    2211     653
CTETRA      3812       1    3012     911    3996     878
CTETRA      3813       1     309     230     378     374
CTETRA      3814       1    3526    2309    2290     906
CTETRA      3815       1    3216    1849    1528    1529
CTETRA      3816       1    2614    2623    1110    1161
CTETRA      3817       1    1851    1867    1866      90
CTETRA      3818       1    3642     938    3643     939
CTETRA      3819       1    1131     309     230     378
CTETRA      3820       1    2238     886    1135      89
CTETRA      3821       1    1164     426     974     398
CTETRA      3822       1    1648    1064     148     316
CTETRA      3823       1    3054    1219    1225      18
CTETRA      3824       1    3982     198    1571     111
CTETRA      3825       1    1025     566     152     549
CTETRA      3826       1    3412    3413    2257    1149
CTETRA      3827       1     877     275     193     383
CTETRA      3828       1     130     193     275     383
CTETRA      3829       1     874     875     870     569
CTETRA      3830       1    3006    1460    1462     370
CTETRA      3831       1    1849    1528    1529     612
CTETRA      3832       1     432     878     191     877
CTETRA      3833       1     192     877     193     383
CTETRA      3834       1     106    1040     107     384
CTETRA      3835       1    1706    1095     214     318
CTETRA      3836       1    3308    1643    3447     767
CTETRA      3837       1     200     701     615     699
CTETRA      3838       1    2870    2871    2875    1030
CTETRA      3839       1    3214    1852    1851    1537
CTETRA      3840       1     280     443     440     614
CTETRA      3841       1     888     245     298     726
CTETRA      3842       1    1344    1345    1348    1028
CTETRA      3843       1     994    1045     785     249
CTETRA      3844       1    1898    1914    1913     816
CTETRA      3845       1    1867     178     730      90
CTETRA      3846       1     249     564     251     244
CTETRA      3847       1     629    1121    1056     627
CTETRA      3848       1      88      89     886      84
CTETRA      3849       1     723     628     725    1121
CTETRA      3850       1     723     725    1143    1121
CTETRA      3851       1    2897    2898    1230     937
CTETRA      3852       1     629     562     631    1056
CTETRA      3853       1    3579    3988    1945    1555
CTETRA      3854       1    1408    2781    1411    1022
CTETRA      3855       1    3238    1932    1933    1549
CTETRA      3856       1    2344    2404     458    1096
CTETRA      3857       1    1286    2353     936     340
CTETRA      3858       1    2089    1096    2344     979
CTETRA      3859       1    1982    1109    1997     102
CTETRA      3860       1    2087    1096    2088     543
CTETRA      3861       1    2134    2135    2138    1161
CTETRA      3862       1    3863    3536    3535     515
CTETRA      3863       1    3216    1848    3217    1528
CTETRA      3864       1    2087    1096     459    1172
CTETRA      3865       1    2087     459    2537    1172
CTETRA      3866       1    3232    3233    1938    1546
CTETRA      3867       1     454     779     455     313
CTETRA      3868       1    2088    1096    2089     979
CTETRA      3869       1    2087     459    1096     543
CTETRA      3870       1    3045     453     903     451
CTETRA      3871       1    3100    1544    1545    1178
CTETRA      3872       1     453     903     451     116
CTETRA      3873       1     452    1088     448     118
CTETRA      3874       1    2761    2762    2860    1099
CTETRA      3875       1    3174    1669    1670     257
CTETRA      3876       1     448     451     449     118
CTETRA      3877       1    3855    1724    3551     497
CTETRA      3878       1    1492     451    1016    1088
CTETRA      3879       1    1491    1016    1492     451
CTETRA      3880       1    3043     371     453    1088
CTETRA      3881       1     448    1088     451     118
CTETRA      3882       1    2071    2415    2074     537
CTETRA      3883       1    1485     452     507     237
CTETRA      3884       1    3039    1170    3040     507
CTETRA      3885       1     331     599     335     166
CTETRA      3886       1     452     450     507     118
CTETRA      3887       1    3645    2406    2401     466
CTETRA      3888       1     883     240     117     235
CTETRA      3889       1    2896    3643    2897     938
CTETRA      3890       1    2624    2628    2627     930
CTETRA      3891       1    3726     332    1011     467
CTETRA      3892       1    1912    1913    1927     554
CTETRA      3893       1    1170     239     237     235
CTETRA      3894       1     308     309     510     377
CTETRA      3895       1    2703    2710    2712    1199
CTETRA      3896       1    1927    1942    1941    1055
CTETRA      3897       1    2967    1464    3967     414
CTETRA      3898       1     150      12     449      13
CTETRA      3899       1    3592    1781    1796     786
CTETRA      3900       1    3590    1766    3591     861
CTETRA      3901       1    2956    1254    1253     599
CTETRA      3902       1    1782    1797    1796     344
CTETRA      3903       1    3642    3643    2355     939
CTETRA      3904       1      15     449      12      13
CTETRA      3905       1    2532    2540    2541     842
CTETRA      3906       1    3109    1594     663     666
CTETRA      3907       1    1071     333    1126    1128
CTETRA      3908       1      41     165     596     166
CTETRA      3909       1     755     163     597     165
CTETRA      3910       1     333     964     342     948
CTETRA      3911       1     596    1126    1071     333
CTETRA      3912       1    3272    1616    1617    1077
CTETRA      3913       1      39     333      40     964
CTETRA      3914       1    1225     583      49      51
CTETRA      3915       1     503     505     504     706
CTETRA      3916       1     927     505     372     328
CTETRA      3917       1      72     141     140     483
CTETRA      3918       1    3571     412     411     372
CTETRA      3919       1    3091    3092    1538     865
CTETRA      3920       1    1243    1175     790     996
CTETRA      3921       1    3343    1625    3468    1197
CTETRA      3922       1    3425    1192     867     892
CTETRA      3923       1    3426    1630    1173     892
CTETRA      3924       1    4001     705     410     412
CTETRA      3925       1    3409     719    1640     762
CTETRA      3926       1    3066    1261    1260     947
CTETRA      3927       1    3866    1718     705     372
CTETRA      3928       1    3867    3572    3571     372
CTETRA      3929       1    3268    1583    1586    1138
CTETRA      3930       1    3836    2133    2134    1161
CTETRA      3931       1    2331     410     411     412
CTETRA      3932       1    3095    1554    1551     603
CTETRA      3933       1    3386    3387    3514    1179
CTETRA      3934       1    2031    2032    2047     931
CTETRA      3935       1    3155    2290    2309     909
CTETRA      3936       1    2504     471     535     472
CTETRA      3937       1    3141    1470    3142     226
CTETRA      3938       1     362     510     450     377
CTETRA      3939       1    3136    1487    1468    1105
CTETRA      3940       1    3068    3069    1509     995
CTETRA      3941       1    2504    2505     471     472
CTETRA      3942       1    1946    1947    1961      66
CTETRA      3943       1    1805    1820    1819    1200
CTETRA      3944       1    3548     168    2329     438
CTETRA      3945       1    3254    1558     274     198
CTETRA      3946       1    3048    3968    1490     182
CTETRA      3947       1     854     493     783     243
CTETRA      3948       1    3259    2054    2055     594
CTETRA      3949       1    2024    2025    2040     679
CTETRA      3950       1     242    1058     246     244
CTETRA      3951       1     247     924     726     627
CTETRA      3952       1    3760     615     616     699
CTETRA      3953       1    2007    2022    2021     677
CTETRA      3954       1    3964    1439     395     700
CTETRA      3955       1    2033    2034    2049     456
CTETRA      3956       1    1243     790    1250     996
CTETRA      3957       1    3383    3509    3508     591
CTETRA      3958       1    2181    1161    2711    1199
CTETRA      3959       1    3026    1476    1106     214
CTETRA      3960       1     698     783     499     699
CTETRA      3961       1    3068    1259    1243     995
CTETRA      3962       1    3865    1725    1727     963
CTETRA      3963       1     138     130     134     133
CTETRA      3964       1    3227    3228    1943    1552
CTETRA      3965       1    3407    1684     191     878
CTETRA      3966       1    2818    2819    2853     212
CTETRA      3967       1    1681    1684     911     147
CTETRA      3968       1    1683     876    1684     191
CTETRA      3969       1    1682     151     370     147
CTETRA      3970       1    2555    2559    2560     105
CTETRA      3971       1     295     297     748     294
CTETRA      3972       1    1400    1401    1404    1022
CTETRA      3973       1    1821     941    1822    1115
CTETRA      3974       1    1889    1890    1904     250
CTETRA      3975       1    2680     306    2699     653
CTETRA      3976       1     710     278      75      59
CTETRA      3977       1     172     918     174      59
CTETRA      3978       1    1704    1705     121     222
CTETRA      3979       1     990     710     590      59
CTETRA      3980       1    3555     356    3556     590
CTETRA      3981       1     951     430    1130    1121
CTETRA      3982       1     184     172     918     174
CTETRA      3983       1     181     174     588     173
CTETRA      3984       1     184     174     918     750
CTETRA      3985       1    2647     212    2651     976
CTETRA      3986       1    3300    2940    2939     776
CTETRA      3987       1    2986    2987    1446     853
CTETRA      3988       1    2855     311    1108     976
CTETRA      3989       1    1108     311     212     976
CTETRA      3990       1    1603      22     776      60
CTETRA      3991       1    2896     160     938     937
CTETRA      3992       1    3056    1222    1221    1059
CTETRA      3993       1    2996    2997    1451    1017
CTETRA      3994       1    2987    1446     853     852
CTETRA      3995       1    2647    2649     869     976
CTETRA      3996       1    2155    2159    2158     869
CTETRA      3997       1    2155    2159     869     976
CTETRA      3998       1    2159     976    2160     839
CTETRA      3999       1      27      28    1147    1146
CTETRA      4000       1    3111    3326    1645     529
CTETRA      4001       1     959     586    1141    1168
CTETRA      4002       1     271     687    1201    1168
CTETRA      4003       1    2562    1182    1202     676
CTETRA      4004       1    1141     586    1195    1168
CTETRA      4005       1    3433    3434    2246    1124
CTETRA      4006       1    3501    3502    2313       2
CTETRA      4007       1    1195    1168     687     288
CTETRA      4008       1    3574    3575    1870     894
CTETRA      4009       1    3271     348    2887    1077
CTETRA      4010       1    3118      31    3119      25
CTETRA      4011       1    2472    1202     676    1155
CTETRA      4012       1     586     587      37     718
CTETRA      4013       1    3567      31      30      26
CTETRA      4014       1    3980    3567    3873      26
CTETRA      4015       1    1201      37      36     718
CTETRA      4016       1    3341    3469    3342    1622
CTETRA      4017       1     756     659     757     660
CTETRA      4018       1    3301    3302    2942    1600
CTETRA      4019       1     904     598     935     758
CTETRA      4020       1     663     585     757     660
CTETRA      4021       1    2614    1069    2711    1161
CTETRA      4022       1    2988    3347    2989     852
CTETRA      4023       1    3836    2711    2133    1161
CTETRA      4024       1    1130    1203     722     725
CTETRA      4025       1    3035    1483    1467     309
CTETRA      4026       1     977     400     804     732
CTETRA      4027       1    3121    1465    1466      95
CTETRA      4028       1      17     576      18     758
CTETRA      4029       1    3761     201    3762     618
CTETRA      4030       1     574     757     585     660
CTETRA      4031       1     916      17      51     757
CTETRA      4032       1    1472     214     231     226
CTETRA      4033       1    1025     275     109     363
CTETRA      4034       1     916     584     585     757
CTETRA      4035       1    3431     893     905     944
CTETRA      4036       1     867     803     892     818
CTETRA      4037       1    3285    2904    3286    1589
CTETRA      4038       1    3284    2907    2906    1595
CTETRA      4039       1    1772    1773    1787     579
CTETRA      4040       1    3069    1513    1509     996
CTETRA      4041       1     891     892     803     818
CTETRA      4042       1      28    1147     892    1204
CTETRA      4043       1    1751     354     729     512
CTETRA      4044       1    3300    2939    2938      60
CTETRA      4045       1    3320     867    1631     892
CTETRA      4046       1    3320    3426    3425     892
CTETRA      4047       1    1312    2484    2422      65
CTETRA      4048       1    1806    1807    1821     941
CTETRA      4049       1    3085    1531    1530    1067
CTETRA      4050       1    2940    1602    2941     790
CTETRA      4051       1    1848    1531    1528    1067
CTETRA      4052       1    2417    2430    2418     580
CTETRA      4053       1    2424    2425    2442     421
CTETRA      4054       1    3426    1173    1192     892
CTETRA      4055       1    1847    1848    1862    1067
CTETRA      4056       1    2939    1243    1259    1175
CTETRA      4057       1    1630     803    1147     892
CTETRA      4058       1    3959    3960    1142     430
CTETRA      4059       1      45    1184     434     437
CTETRA      4060       1    3514    1179     435    1184
CTETRA      4061       1    1587      45    1588    1184
CTETRA      4062       1    3150    1583    1587     434
CTETRA      4063       1    3111     698    3112     700
CTETRA      4064       1    1270    1273    1272     194
CTETRA      4065       1    3150     434    1587    1184
CTETRA      4066       1    3150    2302     434    1184
CTETRA      4067       1    3514     435    2302    1184
CTETRA      4068       1    3204    1834    1835    1513
CTETRA      4069       1    3203    1834    3204    1513
CTETRA      4070       1    2121    2122    2123     470
CTETRA      4071       1    2170    2173    2609     531
CTETRA      4072       1    2938    2939    1259    1175
CTETRA      4073       1    1381    2599     587     405
CTETRA      4074       1    3150    1587    3983    1184
CTETRA      4075       1    2799     418    1193     415
CTETRA      4076       1    1412    1416    1205     415
CTETRA      4077       1    3837    2137    3838    2646
CTETRA      4078       1    3646    2342    2406     466
CTETRA      4079       1    2719    1205    1144     415
CTETRA      4080       1    1363    2667    1366    1004
CTETRA      4081       1    2940    1250    1243     790
CTETRA      4082       1     975     977     429     701
CTETRA      4083       1    2939    2940    1175     776
CTETRA      4084       1     529     527     501     495
CTETRA      4085       1     529     190     767     501
CTETRA      4086       1    1624    1625    1627     126
CTETRA      4087       1     698     499     530     501
CTETRA      4088       1    1421    1425    1424    1043
CTETRA      4089       1      40     645     964     334
CTETRA      4090       1     498     501     500     496
CTETRA      4091       1    2718    2720    2724     417
CTETRA      4092       1     698     499     841     699
CTETRA      4093       1     994     764     499     785
CTETRA      4094       1    3594    3986    1840    1523
CTETRA      4095       1    3282    2911    1599    1601
CTETRA      4096       1    3906    2781    1405    2782
CTETRA      4097       1    3573    1540    1539     895
CTETRA      4098       1     698     841     499     501
CTETRA      4099       1     998    1171     127    1206
CTETRA      4100       1     698     499     783     530
CTETRA      4101       1    2770    2771    2812     763
CTETRA      4102       1     250     499     498     496
CTETRA      4103       1     241     242    1207     243
CTETRA      4104       1    1835    1836    1509     995
CTETRA      4105       1    3413    3414    2257    1149
CTETRA      4106       1     951    1130     722     725
CTETRA      4107       1    3300    1604    1602     776
CTETRA      4108       1    3098    2264    3099     122
CTETRA      4109       1     723     734    1143     725
CTETRA      4110       1     538    1203    1186     725
CTETRA      4111       1    1186     912     734     725
CTETRA      4112       1    1802    1817    1816     662
CTETRA      4113       1    1143     912    1203     725
CTETRA      4114       1    1713    1715    1714     589
CTETRA      4115       1    3964     783     530     700
CTETRA      4116       1    2789    2795     179     650
CTETRA      4117       1    1256     664     336     665
CTETRA      4118       1     599     336     335     166
CTETRA      4119       1    2200    2795    2796     650
CTETRA      4120       1    2789     307    2794     650
CTETRA      4121       1    2197    2757     864     650
CTETRA      4122       1    2757    2794     864     650
CTETRA      4123       1    2401    1196    1208    1209
CTETRA      4124       1    2951    2952    1245     665
CTETRA      4125       1     115     138     150     388
CTETRA      4126       1       8      10     153      14
CTETRA      4127       1    2893    3648    3647     643
CTETRA      4128       1     357    1137     460    1210
CTETRA      4129       1     148     149     150     155
CTETRA      4130       1    1799    1800    1814     596
CTETRA      4131       1     227     154      13     155
CTETRA      4132       1    2542    2543    2550    1210
CTETRA      4133       1    3736    1301    3737    2532
CTETRA      4134       1     139     275     363     383
CTETRA      4135       1    2950    1594    2951     667
CTETRA      4136       1    3703    2124    2118    2571
CTETRA      4137       1     149     115     150     388
CTETRA      4138       1    2078    2344    2346     979
CTETRA      4139       1     379     130     388     383
CTETRA      4140       1    1330    2560    2506    1023
CTETRA      4141       1    2101    2109    2102     642
CTETRA      4142       1    3664    2360    1332    2393
CTETRA      4143       1    1762    1777    1776     389
CTETRA      4144       1    2939    2940    1243    1175
CTETRA      4145       1    2376     690     689     642
CTETRA      4146       1    3407     432     777     425
CTETRA      4147       1      81     689     693     475
CTETRA      4148       1    1305    1315    1313      65
CTETRA      4149       1    3712    2103    2104     475
CTETRA      4150       1    1692     453     236     116
CTETRA      4151       1    2530      81     693     475
CTETRA      4152       1    3712    2510    2103     475
CTETRA      4153       1    2112    2510     690     475
CTETRA      4154       1    2103    2510    2112     475
CTETRA      4155       1    3702    2124    2566     470
CTETRA      4156       1     380     279       2     289
CTETRA      4157       1    3502    2314       2      63
CTETRA      4158       1     444     419     420     421
CTETRA      4159       1       1       2      58       3
CTETRA      4160       1       1      54       7       3
CTETRA      4161       1    2098    2099    2120     386
CTETRA      4162       1      78      54      53      56
CTETRA      4163       1     492      63      57      56
CTETRA      4164       1     278      58     640      75
CTETRA      4165       1    1296    1297     287    1100
CTETRA      4166       1     443     181     174     440
CTETRA      4167       1    1724     443     181     439
CTETRA      4168       1    3721    2496    2080    2498
CTETRA      4169       1     180     439     181     171
CTETRA      4170       1    1712     181     443     614
CTETRA      4171       1    3598    2432    2431     987
CTETRA      4172       1    1712     481     181     589
CTETRA      4173       1    2421    2476    2477     187
CTETRA      4174       1     505     296     908     752
CTETRA      4175       1    3398    3492    3491     706
CTETRA      4176       1     504     639       7     506
CTETRA      4177       1    3060    1504    1505      62
CTETRA      4178       1    3907    3908    1411    2780
CTETRA      4179       1    3299    1606    1604      60
CTETRA      4180       1    2578    2579    2591    1114
CTETRA      4181       1    3705    2130    2126    2561
CTETRA      4182       1     409     639       6     707
CTETRA      4183       1       5     504     365       6
CTETRA      4184       1    3597    2431    2358     423
CTETRA      4185       1    2845    2881    2879     952
CTETRA      4186       1    1159     504       5       7
CTETRA      4187       1    3887    1367    1370    2832
CTETRA      4188       1    2288    1145     638     299
CTETRA      4189       1    3104    2278    2289     494
CTETRA      4190       1     310     908       7     296
CTETRA      4191       1     143     102     144     142
CTETRA      4192       1    2219    2220     525     526
CTETRA      4193       1    2509    2510    2520     689
CTETRA      4194       1    2367    2376      81     642
CTETRA      4195       1    3763    3764    2690     723
CTETRA      4196       1    2372    1102     689     474
CTETRA      4197       1    2782    2786    2800    1094
CTETRA      4198       1    1978     143      66      73
CTETRA      4199       1    1991    1992     677     143
CTETRA      4200       1    2219    2223    2222     525
CTETRA      4201       1    2601    2602    2687     724
CTETRA      4202       1    2696    2697    2700     526
CTETRA      4203       1    1979     102     143      73
CTETRA      4204       1     102     479     144     142
CTETRA      4205       1     414     134     900     114
CTETRA      4206       1    1918    1933    1932     299
CTETRA      4207       1    2937    1259    1258    1039
CTETRA      4208       1    2766     804     400     801
CTETRA      4209       1    3462    3956    3463     637
CTETRA      4210       1    1045     890     560     625
CTETRA      4211       1     883     150     117     154
CTETRA      4212       1    1037     610     825      34
CTETRA      4213       1     110     111     137     133
CTETRA      4214       1     414     134     370     132
CTETRA      4215       1     903     134     116     112
CTETRA      4216       1     362       8      13      11
CTETRA      4217       1    1746    1747    1761      61
CTETRA      4218       1    2807     834    2811     923
CTETRA      4219       1      12     138     449     133
CTETRA      4220       1    2851     955    2852    1158
CTETRA      4221       1    2131    2868    2136    1111
CTETRA      4222       1     138     139     388     130
CTETRA      4223       1      45     434     312     441
CTETRA      4224       1     429     241     854     251
CTETRA      4225       1     980     227     230     375
CTETRA      4226       1     448      12     449     133
CTETRA      4227       1    3505     282     283      64
CTETRA      4228       1      15     448      12     449
CTETRA      4229       1    1535     868     897      93
CTETRA      4230       1     175    1042     176      93
CTETRA      4231       1    2655    2656    2662     220
CTETRA      4232       1    1305    1312    1309      65
CTETRA      4233       1    2186    2190    2189    1120
CTETRA      4234       1    2564    2565     187      65
CTETRA      4235       1    2729     307    2737     657
CTETRA      4236       1    1868    1869    1042      93
CTETRA      4237       1    3091     176     865      93
CTETRA      4238       1    3092    1535    1538     865
CTETRA      4239       1    1869     897    1042      93
CTETRA      4240       1    1313    1315    1314    2557
CTETRA      4241       1    1061     878     877     193
CTETRA      4242       1    2903    1220    1226      49
CTETRA      4243       1    2920    1242    1231    1118
CTETRA      4244       1    3905    1402    2783    1094
CTETRA      4245       1     130     137     193     131
CTETRA      4246       1     370     134     379     130
CTETRA      4247       1    3056    1221    3057    1059
CTETRA      4248       1    1599    1600    1602     776
CTETRA      4249       1     467     161    1012    1209
CTETRA      4250       1    1349    2827    2815     814
CTETRA      4251       1    2904     577    1589     129
CTETRA      4252       1    1762    1763    1777     389
CTETRA      4253       1    3591     786     857     855
CTETRA      4254       1     465     466    1154    1152
CTETRA      4255       1    2401    1208     465    1209
CTETRA      4256       1    2401    2410    1208    1196
CTETRA      4257       1    2371     474     689     535
CTETRA      4258       1    2401    1154    2409    1196
CTETRA      4259       1    1154    1153    1196    1209
CTETRA      4260       1     930    1027    1028     830
CTETRA      4261       1     961     287    1162    1196
CTETRA      4262       1     164     934     166     159
CTETRA      4263       1    3052    1228    1227     935
CTETRA      4264       1    2952     664     666    1101
CTETRA      4265       1     157     334     158     166
CTETRA      4266       1    2958    3728    3729     331
CTETRA      4267       1    2069    2526    2529     263
CTETRA      4268       1     933     934     160     159
CTETRA      4269       1    1122     333    1071    1128
CTETRA      4270       1     346     652     347     343
CTETRA      4271       1    2894    2895    1228     932
CTETRA      4272       1    1746    1761    1760    1014
CTETRA      4273       1      41     596     333     166
CTETRA      4274       1     332     161     467     164
CTETRA      4275       1     160     465     164     934
CTETRA      4276       1      41     157     163     165
CTETRA      4277       1    1597    1600    1599      92
CTETRA      4278       1     331     164     648     166
CTETRA      4279       1    1779     898     858    1136
CTETRA      4280       1    3783    1342    3784    2633
CTETRA      4281       1    2966    1616    1080    1076
CTETRA      4282       1     331    1211    1152     164
CTETRA      4283       1     832     754     751     297
CTETRA      4284       1     504       7     505     506
CTETRA      4285       1    3576    1900    1885      28
CTETRA      4286       1    3786    1385    2618     829
CTETRA      4287       1    1119     909     326     552
CTETRA      4288       1    3868    3571    3570     368
CTETRA      4289       1    3061    1506    1504     823
CTETRA      4290       1     927     372     411     328
CTETRA      4291       1     323     367     908     706
CTETRA      4292       1    2360    2361    2458     473
CTETRA      4293       1    2953    3724    1169    1101
CTETRA      4294       1     505     908     328     752
CTETRA      4295       1    3021     874    1469     569
CTETRA      4296       1    1477     567     566     393
CTETRA      4297       1    1469     874     956     569
CTETRA      4298       1     956     919     566     569
CTETRA      4299       1    1756    1757    1771     916
CTETRA      4300       1    1803    1818    1817    1084
CTETRA      4301       1    3653    3654    1299    2407
CTETRA      4302       1    1859    1045     890    1166
CTETRA      4303       1    1787    1788    1802     579
CTETRA      4304       1    1687    1690     879     112
CTETRA      4305       1    1838    1522    1520     946
CTETRA      4306       1    2947    2948    1246    1086
CTETRA      4307       1    1181     875     874     569
CTETRA      4308       1    1921    1936    1935     502
CTETRA      4309       1     467    1012     961    1209
CTETRA      4310       1     466     648     462    1152
CTETRA      4311       1    2817    2818    2850     211
CTETRA      4312       1    2947    2948    1086    1087
CTETRA      4313       1    1251    1031     667     668
CTETRA      4314       1     331    1211     462    1152
CTETRA      4315       1     465    1152     164     934
CTETRA      4316       1    1211     467    1152     164
CTETRA      4317       1     357     320     359     358
CTETRA      4318       1    2949     667    1086    1087
CTETRA      4319       1    3305    1591    2949    1087
CTETRA      4320       1    3071    1248    1246    1107
CTETRA      4321       1    3198    1830    3199    1518
CTETRA      4322       1    1590     577    1592    1087
CTETRA      4323       1    2948    1252    1246    1086
CTETRA      4324       1     662     577     579    1082
CTETRA      4325       1    1592     577     584    1087
CTETRA      4326       1     585     584     577    1087
CTETRA      4327       1    1823     945     199     946
CTETRA      4328       1    1838    1839    1522     946
CTETRA      4329       1    2949    1591     667    1087
CTETRA      4330       1     662    1086     667    1087
CTETRA      4331       1    3206    1837    1520    1521
CTETRA      4332       1    1591     663     667    1087
CTETRA      4333       1     739     737    1136     738
CTETRA      4334       1     753     295     752     297
CTETRA      4335       1    3158    2311     366     367
CTETRA      4336       1    3492     476    2311     367
CTETRA      4337       1     390     947     196     942
CTETRA      4338       1    2916    1607    2917      86
CTETRA      4339       1     323     908     328     706
CTETRA      4340       1    3491    2307     849     367
CTETRA      4341       1    2934    2935    1260     390
CTETRA      4342       1    3491    3492     367     706
CTETRA      4343       1    3093    3971    1540     896
CTETRA      4344       1     849     328     705     706
CTETRA      4345       1     269     833     551     967
CTETRA      4346       1    2934    1260    1261     390
CTETRA      4347       1     326     303     302     910
CTETRA      4348       1    3275    1614    2923    1035
CTETRA      4349       1    1278    2581    2570     672
CTETRA      4350       1    1269    1273    1270     194
CTETRA      4351       1    1734     965     966     967
CTETRA      4352       1    1734     968     966     965
CTETRA      4353       1    1734     544     967     520
CTETRA      4354       1    3752    1275    1278    2570
CTETRA      4355       1     253     833     269     967
CTETRA      4356       1    2994    2995    1454    1098
CTETRA      4357       1    2620    2643    2636     781
CTETRA      4358       1    3679    1274    2443    2447
CTETRA      4359       1    3778    1357    3779    2631
CTETRA      4360       1     253     965     833     967
CTETRA      4361       1    3584     136    2006     678
CTETRA      4362       1    2035    2050     456     468
CTETRA      4363       1    3745    1320    1314    2557
CTETRA      4364       1    3679    3680    1274    2447
CTETRA      4365       1    3893    2815    1349    2827
CTETRA      4366       1    2996    1451    1454    1017
CTETRA      4367       1     545     679     464     468
CTETRA      4368       1    2035     456     678     468
CTETRA      4369       1    1269    1270    1310     194
CTETRA      4370       1    1274    1277    1276     341
CTETRA      4371       1    2006     677    2021     678
CTETRA      4372       1    2064     454     456     457
CTETRA      4373       1     679     103     464     678
CTETRA      4374       1    2586    2588    1116     982
CTETRA      4375       1    2588    1116     982     986
CTETRA      4376       1    2995    2996    1454    1017
CTETRA      4377       1    1072    1001     875     694
CTETRA      4378       1    3569    2337    2336     927
CTETRA      4379       1    1283    1001    1284    1000
CTETRA      4380       1    2428    2445    2444     720
CTETRA      4381       1    1165     573    1001    1000
CTETRA      4382       1    1283    2588    1292     986
CTETRA      4383       1     493     495     499     496
CTETRA      4384       1    3739    1327    1321    2527
CTETRA      4385       1    3115    1710     872    1046
CTETRA      4386       1    2622    2644    2642     954
CTETRA      4387       1    3114    3686    3604    1287
CTETRA      4388       1     326     551     833     552
CTETRA      4389       1     252     325     751     752
CTETRA      4390       1     918     297     292     294
CTETRA      4391       1    2170    2174    2173     531
CTETRA      4392       1     326     303     833     751
CTETRA      4393       1    1863    1878    1877     716
CTETRA      4394       1     330     325     752     324
CTETRA      4395       1     436     965     970     833
CTETRA      4396       1    3646     933    3647     466
CTETRA      4397       1    1728     284     435     438
CTETRA      4398       1    2290     906     519    1148
CTETRA      4399       1    1006     257     267     255
CTETRA      4400       1     734     801     912     923
CTETRA      4401       1     754     252     751     752
CTETRA      4402       1    3391    3392    3522     520
CTETRA      4403       1     519     269     551     520
CTETRA      4404       1    1591    1594     667     663
CTETRA      4405       1    2352     695     696     984
CTETRA      4406       1    3655    1294    1300    2387
CTETRA      4407       1     254     969     999     965
CTETRA      4408       1    1138     436     970     303
CTETRA      4409       1    2955    3726    2956     332
CTETRA      4410       1    2954    3724    3725    1169
CTETRA      4411       1    1177     303     970     552
CTETRA      4412       1     436     970     303     833
CTETRA      4413       1     123     125     511     920
CTETRA      4414       1    3679    1274    1269    2443
CTETRA      4415       1     488     491     489     921
CTETRA      4416       1    1310    2426    2446     194
CTETRA      4417       1     489     491     126     920
CTETRA      4418       1     489     541     487     626
CTETRA      4419       1     638     298     727     920
CTETRA      4420       1     456     464     678     468
CTETRA      4421       1    2480    2483    2485      69
CTETRA      4422       1    2464    2467    2465    1182
CTETRA      4423       1    2460     688    1155     471
CTETRA      4424       1    2036    2052    2051     468
CTETRA      4425       1    1304    2484    1312      65
CTETRA      4426       1    3587    2051     455     468
CTETRA      4427       1    3678    2443    1269    2446
CTETRA      4428       1    3876    3877     271     273
CTETRA      4429       1    2022     679    2037     468
CTETRA      4430       1     456     455     464     457
CTETRA      4431       1     677     103     679     678
CTETRA      4432       1    1271    1307    1308     187
CTETRA      4433       1    2052     545     595     468
CTETRA      4434       1    3662    2392    1326    2399
CTETRA      4435       1     463    1134     931     464
CTETRA      4436       1     428    1054     563     785
CTETRA      4437       1     428     785     563     203
CTETRA      4438       1    2853     954     212     311
CTETRA      4439       1    1054     770    1060     785
CTETRA      4440       1    3738    1324    1327     848
CTETRA      4441       1    3618    2455    2129    2468
CTETRA      4442       1    2476    2483    2480      69
CTETRA      4443       1    1272    1273    1275     672
CTETRA      4444       1    1713     356     589     613
CTETRA      4445       1    1714     589     591     613
CTETRA      4446       1     591     613     589     588
CTETRA      4447       1    1713    1716     356     613
CTETRA      4448       1    3791    1397    1400    2721
CTETRA      4449       1    1322    2392    2393     845
CTETRA      4450       1    1716     989     992     613
CTETRA      4451       1     282     492     988     989
CTETRA      4452       1    3872     282     988     989
CTETRA      4453       1    1282     339     340     986
CTETRA      4454       1    2388    2389    2395     692
CTETRA      4455       1    1278     339    2581     341
CTETRA      4456       1    1274     672    2447     341
CTETRA      4457       1    1276    1278     672     341
CTETRA      4458       1    1274    1276     672     341
CTETRA      4459       1    1277    1280    1279     341
CTETRA      4460       1     669     665    1198     597
CTETRA      4461       1    3663    1322    2392    2393
CTETRA      4462       1    2368     689     691     693
CTETRA      4463       1     163     597     600     660
CTETRA      4464       1    2355     939    2400     287
CTETRA      4465       1     664     597     659     600
CTETRA      4466       1     574     585     669     660
CTETRA      4467       1     669     597     660     661
CTETRA      4468       1     515     330     329     255
CTETRA      4469       1     329     325     326     551
CTETRA      4470       1    2581    2582     672     338
CTETRA      4471       1    3160    2315    2312       4
CTETRA      4472       1    2155    2649    2650     976
CTETRA      4473       1     550    1177     544     552
CTETRA      4474       1    1733    1735     269     520
CTETRA      4475       1    1007     966     253     967
CTETRA      4476       1    3391    3521     544     520
CTETRA      4477       1    3894    3895    1346    2865
CTETRA      4478       1    1360    2619    2636     781
CTETRA      4479       1    1735     967     269     520
CTETRA      4480       1     870     108     107     549
CTETRA      4481       1     385     671     777     381
CTETRA      4482       1    1025     548     109     275
CTETRA      4483       1    1105     188     878     193
CTETRA      4484       1    2862    2867    2866    1027
CTETRA      4485       1    1061     877     275     193
CTETRA      4486       1     198     193     137     131
CTETRA      4487       1    3894    2865    1346     814
CTETRA      4488       1    2628    2634     930    1028
CTETRA      4489       1     176     865    1042     818
CTETRA      4490       1    2874    1103    1068    1029
CTETRA      4491       1      28     892    1113    1204
CTETRA      4492       1     274    1061     275     193
CTETRA      4493       1     406     396     397     394
CTETRA      4494       1    1341    1027    1026     830
CTETRA      4495       1     191     192     877     193
CTETRA      4496       1    1061     878     432     877
CTETRA      4497       1    1355    1359    1358     782
CTETRA      4498       1    2522    2528    2523     691
CTETRA      4499       1     443     439     437     171
CTETRA      4500       1    3022    3696    3116    1181
CTETRA      4501       1    3659    1323    2397    2398
CTETRA      4502       1    1180     910     779     293
CTETRA      4503       1     325     326     751     302
CTETRA      4504       1    3521    3522    2295     520
CTETRA      4505       1     254     253     969     965
CTETRA      4506       1    2665     403    2666     219
CTETRA      4507       1    2750      36    1201      37
CTETRA      4508       1    3319    1631    3320     867
CTETRA      4509       1    3774    1372    1369    2658
CTETRA      4510       1    3880    2842     685     837
CTETRA      4511       1    1119    1177     552     910
CTETRA      4512       1    3561     508     276     509
CTETRA      4513       1    3877     684     271     273
CTETRA      4514       1     510     309     647     374
CTETRA      4515       1    1700     647     887     234
CTETRA      4516       1    1695     234    1697     233
CTETRA      4517       1    2744    2749    2750     404
CTETRA      4518       1    3497    3813     959     409
CTETRA      4519       1    1091     150     883     154
CTETRA      4520       1    1170     507    1132     235
CTETRA      4521       1    3753    1291    3754    2581
CTETRA      4522       1    2666     403     928     219
CTETRA      4523       1    1696     237    1170     239
CTETRA      4524       1    2029    2045    1133     735
CTETRA      4525       1     252     330     325     752
CTETRA      4526       1    2977    3354    1697     233
CTETRA      4527       1    3868    3869    1722     413
CTETRA      4528       1    2976     238    1695     233
CTETRA      4529       1    1693     236    1694     239
CTETRA      4530       1    1589    1590    1596     577
CTETRA      4531       1    1696    1170    1698     239
CTETRA      4532       1    1693    1695     238     239
CTETRA      4533       1     832     254     838     751
CTETRA      4534       1      46      78     292     293
CTETRA      4535       1      75     292     918      77
CTETRA      4536       1     434     436     441     437
CTETRA      4537       1    3247     523    3248      71
CTETRA      4538       1    3785    1339    1334    2632
CTETRA      4539       1    1335     830    1026     828
CTETRA      4540       1     364      70      71      10
CTETRA      4541       1    2391    2392    2399     848
CTETRA      4542       1    3248     523     521      71
CTETRA      4543       1    3507    3508    2299     591
CTETRA      4544       1    3249     364    1062      70
CTETRA      4545       1    2621    2629    2625     813
CTETRA      4546       1    2849    2850    2852     954
CTETRA      4547       1    3249     364      70      71
CTETRA      4548       1    1979    1980     102      73
CTETRA      4549       1    3250    1950     113     521
CTETRA      4550       1    1400    1404    1403    1022
CTETRA      4551       1    3250     521     113     146
CTETRA      4552       1    2860    2863    2861    1026
CTETRA      4553       1    3603     936     696     694
CTETRA      4554       1    1335     829    1339     830
CTETRA      4555       1    2499    1000    2588     986
CTETRA      4556       1    3114     875    3115     694
CTETRA      4557       1    1385    1389    1388     829
CTETRA      4558       1    3115    1181    3116     573
CTETRA      4559       1     907    1072     559     875
CTETRA      4560       1    3790    1394    1397     442
CTETRA      4561       1     820    1070    1127     209
CTETRA      4562       1    3791    1400    3792    2721
CTETRA      4563       1    1826    1827    1510    1070
CTETRA      4564       1    3556    3557    2324     992
CTETRA      4565       1    3587    3255    3990     455
CTETRA      4566       1    1510    1070     819     209
CTETRA      4567       1    2617    2627    2632     829
CTETRA      4568       1    2707    1065    1032     442
CTETRA      4569       1    3078    1262     208     209
CTETRA      4570       1    1826    1524     208     209
CTETRA      4571       1    3077    3078    1510     209
CTETRA      4572       1    2860    2861    2878     929
CTETRA      4573       1    1403     417    2720    1022
CTETRA      4574       1    2780    2800     418    1022
CTETRA      4575       1    3078     208    1524     209
CTETRA      4576       1    1468    1105    1487     878
CTETRA      4577       1    1683    1684     147     191
CTETRA      4578       1    3011    1487     188     878
CTETRA      4579       1    3996     911    1684     878
CTETRA      4580       1    2680    2697    2696     526
CTETRA      4581       1    3908    3909    1414    2779
CTETRA      4582       1    3011     188     911     878
CTETRA      4583       1    2718    2719    2727    1193
CTETRA      4584       1    2577     580     420     422
CTETRA      4585       1    1410    1411    1414     418
CTETRA      4586       1    2417    2418     386     580
CTETRA      4587       1    2440     444     420     421
CTETRA      4588       1    2430    2440     420     392
CTETRA      4589       1    2091    2424    2423     392
CTETRA      4590       1    1407     418     417    1022
CTETRA      4591       1    1410    1414    1413     418
CTETRA      4592       1    2086     350    2544     543
CTETRA      4593       1    2542    2544     350     543
CTETRA      4594       1    1414    2779    1417     418
CTETRA      4595       1    2535    2542    1210     543
CTETRA      4596       1    1137     458    1210     543
CTETRA      4597       1    2718    2724    2719     416
CTETRA      4598       1     443     181     439     171
CTETRA      4599       1     180     173     172     171
CTETRA      4600       1    1712    1724     443     181
CTETRA      4601       1    1728     438     435     439
CTETRA      4602       1    1726    1728     435     439
CTETRA      4603       1    1724    1726    1179     439
CTETRA      4604       1    1907    1922    1921     826
CTETRA      4605       1    1848    1849     717     811
CTETRA      4606       1    2779    2780    2799     418
CTETRA      4607       1    3101    1546    1544     606
CTETRA      4608       1    3310    3311    3409    1640
CTETRA      4609       1     638     727     541     920
CTETRA      4610       1    3111    3918    3964    1439
CTETRA      4611       1    3909    1417    1414    2779
CTETRA      4612       1    3111    1645    3112     529
CTETRA      4613       1    3112    1646    3113     698
CTETRA      4614       1    3972    2275     993     373
CTETRA      4615       1     726     626     727     920
CTETRA      4616       1     631    1056     625     627
CTETRA      4617       1    1145     298    1058     246
CTETRA      4618       1    3893    3894    1349    2815
CTETRA      4619       1    1160     248     247     625
CTETRA      4620       1    1981    1982    1996     102
CTETRA      4621       1    3660    1325    2398    2399
CTETRA      4622       1    2637     219    1003     211
CTETRA      4623       1    2400    2410    2408     287
CTETRA      4624       1    3130    1443    1454    1048
CTETRA      4625       1    3001    1442    1453     385
CTETRA      4626       1    1659    1661    1662      94
CTETRA      4627       1    1080    1076    1077    1079
CTETRA      4628       1     216     215     225     217
CTETRA      4629       1     641     646     788     789
CTETRA      4630       1    3977    3114    3686    3604
CTETRA      4631       1    1652    1653    1091     314
CTETRA      4632       1    3128    1449    3129     317
CTETRA      4633       1    1080     646     789    1079
CTETRA      4634       1    3248    3249    1062      70
CTETRA      4635       1    2582    2583     672     674
CTETRA      4636       1    3263    3264    1044     780
CTETRA      4637       1    3266     779    1180     910
CTETRA      4638       1    3376    1692    1690     453
CTETRA      4639       1     292     303     302     297
CTETRA      4640       1    2973    3356    2974     100
CTETRA      4641       1    3374    1696    1694     237
CTETRA      4642       1    3798    1421    2676    1167
CTETRA      4643       1    1646     698     529     767
CTETRA      4644       1    2979    3353    3352    1699
CTETRA      4645       1    2974    3356    3355    1693
CTETRA      4646       1    3018    3691    3692     570
CTETRA      4647       1    3263     778    3264     780
CTETRA      4648       1    1652    1658    1662    1091
CTETRA      4649       1    2975    2976    1458     238
CTETRA      4650       1    3035     647    1483     309
CTETRA      4651       1    3113     698    1646     841
CTETRA      4652       1    2976    2977    1458     233
CTETRA      4653       1    1365    1369    1368    1004
CTETRA      4654       1    3006    3007    1460     151
CTETRA      4655       1    3266     463    3267     779
CTETRA      4656       1    3267     454    1180     779
CTETRA      4657       1     778     463     593    1134
CTETRA      4658       1    1955      43    1956     469
CTETRA      4659       1    1133     735    1134     103
CTETRA      4660       1    2975    1458    1459     238
CTETRA      4661       1    2975    3355    2976     238
CTETRA      4662       1    3163    2298    3164     281
CTETRA      4663       1    2974    1693     238     100
CTETRA      4664       1    1486     111    1490     131
CTETRA      4665       1    3147    1484    1485     452
CTETRA      4666       1    1674    1676     832     709
CTETRA      4667       1    2016     480     135    1033
CTETRA      4668       1    3456    3964    3963     783
CTETRA      4669       1    3736    2545    1293     983
CTETRA      4670       1    2093     433    2096     421
CTETRA      4671       1    2032    2033    2048     931
CTETRA      4672       1    3841    2149    2651     880
CTETRA      4673       1    3146    1482    1484     510
CTETRA      4674       1    2969     879    1465     114
CTETRA      4675       1    2015    2016    2031     735
CTETRA      4676       1     456     463     931     464
CTETRA      4677       1    3657    1302    2396    2397
CTETRA      4678       1    1648    1649    1660     148
CTETRA      4679       1    3841    2651    2652     880
CTETRA      4680       1    2968     879    2969     114
CTETRA      4681       1     493     499     243     496
CTETRA      4682       1    1302    2397    1323     983
CTETRA      4683       1     316     314     317     223
CTETRA      4684       1    2989    3347    3346     851
CTETRA      4685       1    3104     502    1543     494
CTETRA      4686       1    3103    3104    1543     494
CTETRA      4687       1    2278     493    2289     494
CTETRA      4688       1    2009    2025    2024     679
CTETRA      4689       1    3560    3881    3880     508
CTETRA      4690       1     937     756     758     162
CTETRA      4691       1    3772    2599    1378     405
CTETRA      4692       1     937     758     598     162
CTETRA      4693       1    2974     238    1459     100
CTETRA      4694       1    3990    3255    1588      45
CTETRA      4695       1    2991    2992    1047    1063
CTETRA      4696       1    3248    1562    1563    1062
CTETRA      4697       1     956     919     874     215
CTETRA      4698       1    2143     256    2147     880
CTETRA      4699       1    2045    2046    2061    1134
CTETRA      4700       1    2644     954     256     880
CTETRA      4701       1    3035    1702    3371     647
CTETRA      4702       1    1695    1696    1698     239
CTETRA      4703       1     664     659     666    1101
CTETRA      4704       1    3040    3373    1696    1170
CTETRA      4705       1    1695    1698    1697     234
CTETRA      4706       1    3036    3372    3037     647
CTETRA      4707       1    2644     256    2652     880
CTETRA      4708       1     755     597     163     660
CTETRA      4709       1    3177    1678     969     999
CTETRA      4710       1    1653    1660    1658    1091
CTETRA      4711       1    3390    3520    3519    1139
CTETRA      4712       1     664     336     665     597
CTETRA      4713       1    3264    3265    1044     780
CTETRA      4714       1    3243    3244    1569     362
CTETRA      4715       1    1968    1969      74     469
CTETRA      4716       1     344    1071    1070    1128
CTETRA      4717       1    3251    3252     145     146
CTETRA      4718       1     575     758     574     660
CTETRA      4719       1     659     663     757     660
CTETRA      4720       1     755      41     759     163
CTETRA      4721       1    1687    1688    1690     112
CTETRA      4722       1    1988    2004    2003     140
CTETRA      4723       1    1959    1974    1973      72
CTETRA      4724       1    1731     267     515     268
CTETRA      4725       1    3076    3077    1517     819
CTETRA      4726       1    3042    3375    3043     371
CTETRA      4727       1      39    1128     820     819
CTETRA      4728       1    3076    1126    1255     819
CTETRA      4729       1    1881     730    1882     743
CTETRA      4730       1    1882     730     817     743
CTETRA      4731       1    1150     745      88     741
CTETRA      4732       1    3989    1572    1571     110
CTETRA      4733       1    2960     820      39    1187
CTETRA      4734       1      88     740     743     741
CTETRA      4735       1    3042    3043    1481     371
CTETRA      4736       1    3246    1954    1953     523
CTETRA      4737       1      88     745     740     741
CTETRA      4738       1    2960    1244      39     820
CTETRA      4739       1    3990    3269    2065     455
CTETRA      4740       1    1882     817    1897     743
CTETRA      4741       1    2901    1226    1225      49
CTETRA      4742       1     553     817     740     743
CTETRA      4743       1    3051    1229    1228     796
CTETRA      4744       1    1769     575    1784     759
CTETRA      4745       1     391     644     932     649
CTETRA      4746       1     793     882     603     794
CTETRA      4747       1     802     793     603     795
CTETRA      4748       1    3024    1476    1475     592
CTETRA      4749       1     816     554     784     794
CTETRA      4750       1     805     708     816     795
CTETRA      4751       1    3051    1228    3052     796
CTETRA      4752       1     816     376     784     817
CTETRA      4753       1    1738    1753    1752     656
CTETRA      4754       1    1766     354    1767     352
CTETRA      4755       1    1112     376     817     703
CTETRA      4756       1    1781    1796     786     344
CTETRA      4757       1    2938    1175    1259    1039
CTETRA      4758       1    3182    3183    1738    1500
CTETRA      4759       1    2939     776    1175      60
CTETRA      4760       1    2938    1175    1039      60
CTETRA      4761       1    2938    2939    1175      60
CTETRA      4762       1    1603    1606      23      60
CTETRA      4763       1      22      60      23    1174
CTETRA      4764       1    1603     776    1604      60
CTETRA      4765       1    2386    2394    2396     983
CTETRA      4766       1    3195    1827    3196    1510
CTETRA      4767       1    1293    2545    1162     983
CTETRA      4768       1    1032    1099     623     624
CTETRA      4769       1    3299    2938    2937      60
CTETRA      4770       1     196     199     947     772
CTETRA      4771       1    2913    1603    2914      21
CTETRA      4772       1    2937    2938    1039      60
CTETRA      4773       1    3299    1604    3300      60
CTETRA      4774       1     820     345    1127    1070
CTETRA      4775       1    1078    1127     345    1070
CTETRA      4776       1    3425    3426    2250    1192
CTETRA      4777       1      39     964    1187    1128
CTETRA      4778       1    1842    1526    1533    1123
CTETRA      4779       1    1187     964     342    1128
CTETRA      4780       1     820    1187     345    1128
CTETRA      4781       1      22      24    1090    1174
CTETRA      4782       1    1122     344     342    1128
CTETRA      4783       1    1984    1985    1033      74
CTETRA      4784       1    3067    3068    1521    1115
CTETRA      4785       1    1224      91     997    1015
CTETRA      4786       1    1819     998    1200     996
CTETRA      4787       1    2981    3352    3351    1701
CTETRA      4788       1     113     141     483      73
CTETRA      4789       1    2986    1446    1445     853
CTETRA      4790       1    3086    2253    2255     856
CTETRA      4791       1    3069    3070    1513     996
CTETRA      4792       1    1984    1033    1109      74
CTETRA      4793       1      72     483     140      44
CTETRA      4794       1    1972    1973    1987      44
CTETRA      4795       1    1276    1277    1279     341
CTETRA      4796       1     522      74    1109     479
CTETRA      4797       1    3100    2282     610    1178
CTETRA      4798       1    1433    1437    1436     431
CTETRA      4799       1    1985    1986    1033      74
CTETRA      4800       1    1893    1908    1907     761
CTETRA      4801       1    3215    1850    1849    1529
CTETRA      4802       1    3071    3072    1514    1107
CTETRA      4803       1     917      70     226     153
CTETRA      4804       1    1859    1860    1874    1045
CTETRA      4805       1    3248    3249    1562    1062
CTETRA      4806       1     917     153     226     227
CTETRA      4807       1     558     321     323     324
CTETRA      4808       1     503      31     639     506
CTETRA      4809       1    1830    1831    1511     668
CTETRA      4810       1     909     906     321     551
CTETRA      4811       1    3438    2261    2262     560
CTETRA      4812       1     894    1190    1147    1204
CTETRA      4813       1    1906    1907     826     827
CTETRA      4814       1    1113     892     868    1204
CTETRA      4815       1    1192     868     892    1204
CTETRA      4816       1    1173    1147    1190    1204
CTETRA      4817       1     894    1113     896    1204
CTETRA      4818       1    3087    1529    1528     612
CTETRA      4819       1    1113     868     896    1204
CTETRA      4820       1    1259    1039    1175     995
CTETRA      4821       1    1068    1199    1029    1120
CTETRA      4822       1    3336    3480    3479     557
CTETRA      4823       1    1103    1030    1049    1120
CTETRA      4824       1    2732    1103    1049    1120
CTETRA      4825       1    3989      67    3254      68
CTETRA      4826       1    2193    2734    1049    1120
CTETRA      4827       1    2986     853     121     318
CTETRA      4828       1    2189    2193    1049    1120
CTETRA      4829       1    2185    1029    2186    1120
CTETRA      4830       1    2181    2711    2710    1199
CTETRA      4831       1    2183    1199    2187    1120
CTETRA      4832       1    3212    1853    1536    1538
CTETRA      4833       1    2183    1029    1199    1120
CTETRA      4834       1    2711    1161    1069    1199
CTETRA      4835       1    2131    1069    2132    1199
CTETRA      4836       1    1931    1932    1542     301
CTETRA      4837       1    2132    1069    1161    1199
CTETRA      4838       1     998    1171    1212     127
CTETRA      4839       1    3406    3955    3919    2233
CTETRA      4840       1     127     128    1081    1206
CTETRA      4841       1    3237    3238    1933    1549
CTETRA      4842       1    3031    1473    1471     231
CTETRA      4843       1     998     127    1081    1206
CTETRA      4844       1    1600     776      92    1206
CTETRA      4845       1    3127    1647    1654     314
CTETRA      4846       1    3094     993     798     482
CTETRA      4847       1    1600     790     776    1206
CTETRA      4848       1    3463    2265    2288     638
CTETRA      4849       1    1902    1903    1917     125
CTETRA      4850       1    1200     128     776    1206
CTETRA      4851       1    1200     128    1090     776
CTETRA      4852       1    3027    3028    1472    1095
CTETRA      4853       1     790    1171     996    1206
CTETRA      4854       1     998     996    1171    1206
CTETRA      4855       1    1275    1278    2570     672
CTETRA      4856       1    1804     128    1200    1206
CTETRA      4857       1    3101    2281    2279     606
CTETRA      4858       1      19      67      68      20
CTETRA      4859       1     919     215     152     225
CTETRA      4860       1    3579    1916    1931     373
CTETRA      4861       1    3225    1551    1945    1555
CTETRA      4862       1    1470     214    1472     226
CTETRA      4863       1    3141    1002    1470     226
CTETRA      4864       1    3238    1542    1932    1549
CTETRA      4865       1    3141    1563    1002     226
CTETRA      4866       1    1062    1002     226     215
CTETRA      4867       1    1062      70     364     153
CTETRA      4868       1    1273    1276    1275     672
CTETRA      4869       1    3485    3486    2283     885
CTETRA      4870       1    3751    1275    3752    2570
CTETRA      4871       1    1940    1541    1545    1178
CTETRA      4872       1    3139    1559    1566     956
CTETRA      4873       1    3141    1475    1476    1002
CTETRA      4874       1    1470    1002    1476     214
CTETRA      4875       1    2054     545    2055     594
CTETRA      4876       1    3250    1566    1559     364
CTETRA      4877       1    1133    1134     593     103
CTETRA      4878       1    3247    1563     917      70
CTETRA      4879       1    2953    3724    2954    1169
CTETRA      4880       1    2042     778    2057     593
CTETRA      4881       1    2996    3602    3601     695
CTETRA      4882       1    2040    2055     545     593
CTETRA      4883       1    3261    2057     778     593
CTETRA      4884       1    2041    2042     593     103
CTETRA      4885       1    3250    1950    1949     113
CTETRA      4886       1    2040    2041     593     103
CTETRA      4887       1    3261     593     778     305
CTETRA      4888       1    3157     850    1576     323
CTETRA      4889       1    3118    1723    1722     503
CTETRA      4890       1    3114    3115    1288     694
CTETRA      4891       1    1559    1062     956    1002
CTETRA      4892       1    3509     591    1715     614
CTETRA      4893       1    3535    2335    2334     515
CTETRA      4894       1    2004    2020    2019     135
CTETRA      4895       1    3259    1575    1582     304
CTETRA      4896       1    3866    1718    1725     705
CTETRA      4897       1    3385    3510    1712     443
CTETRA      4898       1     181     614     589     588
CTETRA      4899       1    2299     280     591     614
CTETRA      4900       1    1671    1673     709     172
CTETRA      4901       1    3509    2299     591     614
CTETRA      4902       1    3510     443    2297     614
CTETRA      4903       1    3725    2490    3726    1011
CTETRA      4904       1    3529    2308     514     322
CTETRA      4905       1     401     382     108     381
CTETRA      4906       1     548     566     549     393
CTETRA      4907       1     747     709     710     748
CTETRA      4908       1    3017    1478     396     393
CTETRA      4909       1    1061     396     548     877
CTETRA      4910       1     427     425     398     394
CTETRA      4911       1    3263    1577     850     558
CTETRA      4912       1    3390    3521    3520     544
CTETRA      4913       1    3154    2294    2290     909
CTETRA      4914       1    3263    3264    1577    1044
CTETRA      4915       1    1663     747     709     710
CTETRA      4916       1    3389     285    1732    1139
CTETRA      4917       1    1478     548    1479     396
CTETRA      4918       1    2332    2334     846     513
CTETRA      4919       1    3014     427    3015     396
CTETRA      4920       1    3394    3528    3527     906
CTETRA      4921       1    3015     427    3016     396
CTETRA      4922       1       7     639       6       3
CTETRA      4923       1     370     130     192     132
CTETRA      4924       1    1966    1967    1981     522
CTETRA      4925       1    2293     519     550     520
CTETRA      4926       1    3153    3154    1585     550
CTETRA      4927       1     138     117     116      95
CTETRA      4928       1     192     381     877     383
CTETRA      4929       1    1679     414     151     132
CTETRA      4930       1      19      12     448     133
CTETRA      4931       1     138     451     449     133
CTETRA      4932       1     110     111     198     137
CTETRA      4933       1     322     328     323     324
CTETRA      4934       1    1729     906    1731     268
CTETRA      4935       1    1725     963     705     327
CTETRA      4936       1    3306    3973    2951    1594
CTETRA      4937       1     849     328     322     327
CTETRA      4938       1    1297    2356     939    1100
CTETRA      4939       1    2897    3642    2898     938
CTETRA      4940       1     963     328     705     327
CTETRA      4941       1    1820    1835    1834     996
CTETRA      4942       1    1773    1788    1787     579
CTETRA      4943       1    3229    3230    1941    1541
CTETRA      4944       1    1758    1773    1772     581
CTETRA      4945       1     410     705     963     328
CTETRA      4946       1    2902    1592    2903      49
CTETRA      4947       1     846     257     330     513
CTETRA      4948       1    1729     514     329     513
CTETRA      4949       1    3305    1590    1591    1087
CTETRA      4950       1     514     327     322     329
CTETRA      4951       1     357     320    1137     359
CTETRA      4952       1    3731    1187      38     351
CTETRA      4953       1    1778     898    1136      29
CTETRA      4954       1    3731    3732    1187     351
CTETRA      4955       1    3731    2498    3732     351
CTETRA      4956       1     941     205     824     942
CTETRA      4957       1    3296    2933    2932    1612
CTETRA      4958       1    1816    1831    1830     668
CTETRA      4959       1    2936    1258    1260     205
CTETRA      4960       1    1790    1805    1804     128
CTETRA      4961       1    2940    2941    1250     790
CTETRA      4962       1     280     440      77     588
CTETRA      4963       1      46     313     104     293
CTETRA      4964       1    2981    2982    1448     119
CTETRA      4965       1    1836    1521     995    1115
CTETRA      4966       1    2987     853     318     852
CTETRA      4967       1    3279    2915    3280    1605
CTETRA      4968       1    1776    1777    1791      24
CTETRA      4969       1     709     918     748     297
CTETRA      4970       1      59     613     588     173
CTETRA      4971       1     443     440     174     437
CTETRA      4972       1     170     436     438     439
CTETRA      4973       1    3431    2247    2245     893
CTETRA      4974       1    3860    3541    1007     966
CTETRA      4975       1    3859    1734     968     966
CTETRA      4976       1    2319    1006    1007     253
CTETRA      4977       1    3767    2606     538     533
CTETRA      4978       1    3272    2885    3273    1616
CTETRA      4979       1    3175     253     969     257
CTETRA      4980       1    3973    3723    2952    1101
CTETRA      4981       1     252     254     253     969
CTETRA      4982       1     252     969     253     257
CTETRA      4983       1    3969    1240    1236     729
CTETRA      4984       1    2321     966     968     969
CTETRA      4985       1     544     970     965     967
CTETRA      4986       1    3592    1810    1795     857
CTETRA      4987       1    2962    1263    1244     820
CTETRA      4988       1    3109     666     659    1101
CTETRA      4989       1    3001     385    1453     382
CTETRA      4990       1    1208     961    1012    1209
CTETRA      4991       1    1297     939     287    1100
CTETRA      4992       1    3110    3641    3651     940
CTETRA      4993       1    1814    1198    1829    1024
CTETRA      4994       1    3651    3641    2356     940
CTETRA      4995       1     332    1011     161     600
CTETRA      4996       1    3913    1429    1426    2768
CTETRA      4997       1    1624     126    1628     944
CTETRA      4998       1    1012     600    1100     162
CTETRA      4999       1     914    1188     915     763
CTETRA      5000       1     332     165     164     166
CTETRA      5001       1    3573    1841    3574     895
CTETRA      5002       1    2230    1053    2751     763
CTETRA      5003       1    2776     728    1203    1053
CTETRA      5004       1    1931    1556     373     301
CTETRA      5005       1    3112    1436    1440     616
CTETRA      5006       1    1873    1160    1888     561
CTETRA      5007       1    3111    3112    1440     700
CTETRA      5008       1    2231    1186    1053     763
CTETRA      5009       1    3931    3932    2197    2796
CTETRA      5010       1    1801     662     669     585
CTETRA      5011       1     344    1075     352     343
CTETRA      5012       1     516     893    1125    1123
CTETRA      5013       1    1903     245    1904     298
CTETRA      5014       1    3405    1627    3406     489
CTETRA      5015       1    2276     799     802     798
CTETRA      5016       1      38    1187      39     964
CTETRA      5017       1    2276     881     798     993
CTETRA      5018       1     755     597     596     165
CTETRA      5019       1     557     376     784     794
CTETRA      5020       1      39     333     964    1128
CTETRA      5021       1    3096    2270    2269     882
CTETRA      5022       1      38      39      40     964
CTETRA      5023       1    3332    1637    1638     885
CTETRA      5024       1     352     348     347     343
CTETRA      5025       1    3729    1151      38      40
CTETRA      5026       1    3730     349    2497     351
CTETRA      5027       1    3485    2283    2264     885
CTETRA      5028       1    1187     351     261     360
CTETRA      5029       1     640      75      54     294
CTETRA      5030       1    1897    1912    1911     553
CTETRA      5031       1     927      31     503     506
CTETRA      5032       1    1912    1927    1926     555
CTETRA      5033       1     408     711     844     291
CTETRA      5034       1     365     504     503     707
CTETRA      5035       1     365       6     504     707
CTETRA      5036       1    3031     981    1473     231
CTETRA      5037       1    3092    2240    2251     865
CTETRA      5038       1    3337     793    3476     376
CTETRA      5039       1     917     226     231     227
CTETRA      5040       1    1705     318     121     222
CTETRA      5041       1    1704     978    1705     222
CTETRA      5042       1    1704     121     120    1021
CTETRA      5043       1     841     769     765     770
CTETRA      5044       1    1703    1704     120    1021
CTETRA      5045       1     957     221     154     374
CTETRA      5046       1    1706     216    1707     852
CTETRA      5047       1    3019    3694    1165     524
CTETRA      5048       1     516     889     491     921
CTETRA      5049       1     540     487     539     626
CTETRA      5050       1    2767    2774    2773     658
CTETRA      5051       1    3767    2604     533     484
CTETRA      5052       1     538     542     539     484
CTETRA      5053       1    1436    1437    1440     431
CTETRA      5054       1    1145     298     246     727
CTETRA      5055       1    3015    3016    1479     396
CTETRA      5056       1    3445    1646    3446     767
CTETRA      5057       1    3436     630     486     485
CTETRA      5058       1    2984    3350    3349     120
CTETRA      5059       1    1674     709     832     184
CTETRA      5060       1    3005    3362    3006     370
CTETRA      5061       1    1486     188     198     131
CTETRA      5062       1    3128    1444    1450     317
CTETRA      5063       1    3245    1955    1954     469
CTETRA      5064       1    3013    3687    3014     319
CTETRA      5065       1    2974    3356    1693     100
CTETRA      5066       1     981     230    1021     378
CTETRA      5067       1    1911    1912    1926     555
CTETRA      5068       1    3098    1541    1553    1055
CTETRA      5069       1    2983    1447    1448     119
CTETRA      5070       1     753     846     252     752
CTETRA      5071       1     327     329     330     324
CTETRA      5072       1     252     330     257     255
CTETRA      5073       1    2114    2115    2117     534
CTETRA      5074       1     846     847     328     752
CTETRA      5075       1    3156    2306    3157     323
CTETRA      5076       1     922    1205    1167     831
CTETRA      5077       1    1652    1653    1658    1091
CTETRA      5078       1    2768    2774     634     831
CTETRA      5079       1    1426    2768     634     831
CTETRA      5080       1    2774    2775     922     831
CTETRA      5081       1     567     870     875     569
CTETRA      5082       1    2774     658     634     831
CTETRA      5083       1    3047    3377    3378    1688
CTETRA      5084       1    1564    1025     548     566
CTETRA      5085       1     658    1043     634     831
CTETRA      5086       1    3855    3551    3550     497
CTETRA      5087       1    2744    2748    2749     404
CTETRA      5088       1    1425    1043    1167     831
CTETRA      5089       1    1503    1506     821     823
CTETRA      5090       1    1425    1426     634     831
CTETRA      5091       1    1912     553     816     554
CTETRA      5092       1    3521    2295     544     520
CTETRA      5093       1    1577     321     558    1044
CTETRA      5094       1    3423    1632     867     702
CTETRA      5095       1    1912     553     554     555
CTETRA      5096       1    1764     899     822     712
CTETRA      5097       1    3854    3551    3855    1724
CTETRA      5098       1    3807    2653    2608     791
CTETRA      5099       1     181     174     440     588
CTETRA      5100       1    1727     963     327     513
CTETRA      5101       1    3512    2300    2301     443
CTETRA      5102       1    3510    1712     443     614
CTETRA      5103       1    3174    2316    3175     257
CTETRA      5104       1     280     281     591     588
CTETRA      5105       1    1663    1672    1673     709
CTETRA      5106       1    3063    1503     822     712
CTETRA      5107       1     463     593     455     779
CTETRA      5108       1    3602    3603    2352     696
CTETRA      5109       1    3422    3423    2240     702
CTETRA      5110       1    3241    3242      15      16
CTETRA      5111       1    1911     742     553     555
CTETRA      5112       1    1714    1715     591     589
CTETRA      5113       1    3419    3420    2243     228
CTETRA      5114       1    1712     180    1724     181
CTETRA      5115       1    3417    3418    2241    1183
CTETRA      5116       1    1712    1713     481     589
CTETRA      5117       1     891    1042    1113     818
CTETRA      5118       1    3608    3609    2097    2424
CTETRA      5119       1    3003    3004    1461     385
CTETRA      5120       1    3698    2092    3699    2493
CTETRA      5121       1    3240    1016    1567     111
CTETRA      5122       1     427     397     396     394
CTETRA      5123       1    1712    1715     589     614
CTETRA      5124       1    3691    2491    2593    1185
CTETRA      5125       1    3596    3597    2358     423
CTETRA      5126       1    1709    1711     873     872
CTETRA      5127       1    1469     956     874     592
CTETRA      5128       1     874     919     870     215
CTETRA      5129       1    3115     872     875    1046
CTETRA      5130       1    1711    1063     873     872
CTETRA      5131       1    3146    3147    1568     452
CTETRA      5132       1    3364    1710    1709     872
CTETRA      5133       1    3124    1652    1662     884
CTETRA      5134       1     111     183     182     133
CTETRA      5135       1     744     742     746     741
CTETRA      5136       1    3122    3123    1662      98
CTETRA      5137       1     744    1037      34      35
CTETRA      5138       1    1896     553     742     743
CTETRA      5139       1    3241    1570    1016     448
CTETRA      5140       1    2427     672    2443     194
CTETRA      5141       1    2971    3357    2972      99
CTETRA      5142       1    3042    1481    1485     371
CTETRA      5143       1    1037     746    1178      35
CTETRA      5144       1    2977    1456    1458     233
CTETRA      5145       1     240     374      13     377
CTETRA      5146       1    3866    3532    4001     705
CTETRA      5147       1    1725     322    1727     327
CTETRA      5148       1    1854    1870    1869     897
CTETRA      5149       1    3423    2251    2240     702
CTETRA      5150       1    3016     427     397     396
CTETRA      5151       1     411     372     412     328
CTETRA      5152       1    3157     323    2307     367
CTETRA      5153       1    3532     963     410     705
CTETRA      5154       1     898    1129     389      62
CTETRA      5155       1    1725     705     849     327
CTETRA      5156       1    3583    1991    3584     136
CTETRA      5157       1    2988    2989    1444     852
CTETRA      5158       1     858     898    1118     739
CTETRA      5159       1    3063    1241    1239     736
CTETRA      5160       1    3040    1485    1484     507
CTETRA      5161       1    1563     917      70     226
CTETRA      5162       1    1002     214     226     215
CTETRA      5163       1    1062     152     956     215
CTETRA      5164       1    1063     871     873     872
CTETRA      5165       1     873     871     215     872
CTETRA      5166       1    1695     238     239     233
CTETRA      5167       1     917     231       8     227
CTETRA      5168       1    1257     195     196     772
CTETRA      5169       1    1047     870     871    1046
CTETRA      5170       1    3127    3128    1647     317
CTETRA      5171       1     919     152     107     225
CTETRA      5172       1    2569     672    2583     720
CTETRA      5173       1    3274    2923    3275    1614
CTETRA      5174       1     152     109     384     363
CTETRA      5175       1    1040     225     107     384
CTETRA      5176       1    2042    2043    2058    1133
CTETRA      5177       1     145     364     146      10
CTETRA      5178       1     900     879     134     112
CTETRA      5179       1    3385    3511    3510     443
CTETRA      5180       1    1689    1690    1692     116
CTETRA      5181       1    1671     709    1674     184
CTETRA      5182       1    3878    2840    2841     683
CTETRA      5183       1    1690     903     453     116
CTETRA      5184       1    3851    3852    1716     356
CTETRA      5185       1     903     134     451     116
CTETRA      5186       1    3009    1488    1486     188
CTETRA      5187       1    1883    1884    1112    1042
CTETRA      5188       1    1016     451     448    1088
CTETRA      5189       1    3153    2295    2293     550
CTETRA      5190       1    2825    2826    2833     782
CTETRA      5191       1    1714    1717    1716     613
CTETRA      5192       1     508     685      57     490
CTETRA      5193       1     172     590      59     173
CTETRA      5194       1    3984    2326    2327     169
CTETRA      5195       1    2428    2445     720     675
CTETRA      5196       1    3474    2277    2276     802
CTETRA      5197       1     927     505     503     372
CTETRA      5198       1      58      54     640      75
CTETRA      5199       1     747     844     749     748
CTETRA      5200       1     292     750     303     297
CTETRA      5201       1    3880    3881    2754     836
CTETRA      5202       1      55      54      58      56
CTETRA      5203       1    2569    2570     672     194
CTETRA      5204       1     285     972    1139     286
CTETRA      5205       1    3175    2319    3176     969
CTETRA      5206       1     481     181     589     173
CTETRA      5207       1    2967    2968    1463     414
CTETRA      5208       1    3255      76    1588      46
CTETRA      5209       1     568    1177    1138     970
CTETRA      5210       1    3851     992    3556     356
CTETRA      5211       1    2427     672     194     720
CTETRA      5212       1     434     435     284     436
CTETRA      5213       1    3318    3319    3423    1632
CTETRA      5214       1    1380    1381    1382     587
CTETRA      5215       1     722     538     728     539
CTETRA      5216       1    3463     300     638     633
CTETRA      5217       1    3553    2323    2327     180
CTETRA      5218       1    1353     812     814     815
CTETRA      5219       1    3853    1712    1713     481
CTETRA      5220       1    3552    3553    2327     180
CTETRA      5221       1    3151    2292    3152     568
CTETRA      5222       1    3854    1724    1712     180
CTETRA      5223       1    3861    1733    1735    1007
CTETRA      5224       1    1729     514     906     329
CTETRA      5225       1     540     539     487     484
CTETRA      5226       1    3394    3527    3526     906
CTETRA      5227       1    3536    3537    2335     515
CTETRA      5228       1    1017     559     870     875
CTETRA      5229       1    3114     875    1098    1046
CTETRA      5230       1     567     549     870     569
CTETRA      5231       1    1047     851    1063     216
CTETRA      5232       1    1353    1357     781     812
CTETRA      5233       1    2920    1611      85     739
CTETRA      5234       1    3391    1735    3392     520
CTETRA      5235       1    1708     214    1106     873
CTETRA      5236       1    2295     550    1177     544
CTETRA      5237       1    2295     550     544     520
CTETRA      5238       1     214     216     222     217
CTETRA      5239       1    1047     870    1048     225
CTETRA      5240       1    2978    2979    1457     546
CTETRA      5241       1    3318    3423    3422     702
CTETRA      5242       1    1741    1756      17     602
CTETRA      5243       1    1078     207    1213     209
CTETRA      5244       1    1011    1010    1012    1101
CTETRA      5245       1     583      51      17     757
CTETRA      5246       1     574      17     916     757
CTETRA      5247       1    2958    3730    2959      38
CTETRA      5248       1    1740    1502    1495     935
CTETRA      5249       1    1225      17     583      51
CTETRA      5250       1    3316    3317    3419    1634
CTETRA      5251       1    1753    1768    1767     656
CTETRA      5252       1     916      51      17     602
CTETRA      5253       1     583     584      49     757
CTETRA      5254       1    2165     532     840     635
CTETRA      5255       1    2958    1255    1254      39
CTETRA      5256       1    2165     635     840     839
CTETRA      5257       1    3951    2172    2821    2839
CTETRA      5258       1    3055    1220      50      51
CTETRA      5259       1    1754     904     950     797
CTETRA      5260       1    2911    1217    1224     997
CTETRA      5261       1    3012    3996    3013     878
CTETRA      5262       1    1738    1500    1739     797
CTETRA      5263       1    1774    1081     774     128
CTETRA      5264       1    2946    2947    1085    1083
CTETRA      5265       1    2171    1050     532     635
CTETRA      5266       1    3052    1502    1500     797
CTETRA      5267       1     391     796     654     649
CTETRA      5268       1    3061    1234    1235      62
CTETRA      5269       1    3780    1354    1351     815
CTETRA      5270       1    2171    2172     622     635
CTETRA      5271       1    1754    1769    1768     950
CTETRA      5272       1    3951    2172    2169    2821
CTETRA      5273       1    3760     200     615     699
CTETRA      5274       1    3286    2903    1592     577
CTETRA      5275       1    2612     616     615     620
CTETRA      5276       1    3804    3759    2612     616
CTETRA      5277       1    2949     667    1252    1086
CTETRA      5278       1    1589    1592    1590     577
CTETRA      5279       1    1246    1086    1252    1031
CTETRA      5280       1    1591    1593    1594     663
CTETRA      5281       1    3113     841    3444     616
CTETRA      5282       1    3443     616    3444     699
CTETRA      5283       1    3133    1461    3134     379
CTETRA      5284       1    3298    3299    2937    1606
CTETRA      5285       1    3065    1257    3066     947
CTETRA      5286       1    2933    2934    1261     390
CTETRA      5287       1    3804    3113    3759     616
CTETRA      5288       1    2692     636    2695     732
CTETRA      5289       1    2684     618    2685     732
CTETRA      5290       1    2692     733     636     732
CTETRA      5291       1    1163     732     618     202
CTETRA      5292       1    2685    1163     733     732
CTETRA      5293       1     337     144     102     479
CTETRA      5294       1    3205    1836    3206    1521
CTETRA      5295       1    2368    2376    2372     689
CTETRA      5296       1    1821    1089     941    1115
CTETRA      5297       1    3067    1521    1520     206
CTETRA      5298       1    1601    1602    1604     776
CTETRA      5299       1    1635     704     784     740
CTETRA      5300       1    3191    3192    1747    1504
CTETRA      5301       1     522     479    1109      73
CTETRA      5302       1    1791    1792    1806      24
CTETRA      5303       1    2917    1235    1129      86
CTETRA      5304       1    1964    1978      66      73
CTETRA      5305       1    3590     861     855     862
CTETRA      5306       1    1981    1109     102      73
CTETRA      5307       1    2009     102    2010     144
CTETRA      5308       1     881     800     798     993
CTETRA      5309       1    1258     205    1039    1115
CTETRA      5310       1     140     479     141     142
CTETRA      5311       1    1992    1993     677     143
CTETRA      5312       1    1976     143    1991     142
CTETRA      5313       1    1993    1994     677     143
CTETRA      5314       1    2893     643    2894     932
CTETRA      5315       1    1917    1932     125     299
CTETRA      5316       1     638     298     511     299
CTETRA      5317       1    1813    1828    1827    1070
CTETRA      5318       1    3011    1487    1488     188
CTETRA      5319       1    3078    1262    3970     208
CTETRA      5320       1    1918     298    1919     299
CTETRA      5321       1    3105    1548     565     299
CTETRA      5322       1    3106     511    1549     299
CTETRA      5323       1    2962    2963    1263    1127
CTETRA      5324       1    1932    1549     511     299
CTETRA      5325       1     933     158     648     934
CTETRA      5326       1    1201     586      37     718
CTETRA      5327       1    3097    1553    1552     713
CTETRA      5328       1    1812    1813    1827    1070
CTETRA      5329       1    1685     902     900     112
CTETRA      5330       1    3066    1520     946     206
CTETRA      5331       1    3098    1191     122    1055
CTETRA      5332       1     554     555     713    1055
CTETRA      5333       1    3098     713    1191    1055
CTETRA      5334       1    2960    2961    1244     820
CTETRA      5335       1    3592    1810     857     787
CTETRA      5336       1    3592    1796    3593     787
CTETRA      5337       1    1191     746     122    1055
CTETRA      5338       1    1926     746     555    1055
CTETRA      5339       1    1265     641    1267     571
CTETRA      5340       1     272     291     273     289
CTETRA      5341       1     408     278     277     273
CTETRA      5342       1     277     273     278     289
CTETRA      5343       1     861     646    1077    1079
CTETRA      5344       1    1751    1752     354     512
CTETRA      5345       1    1778    1794    1793    1136
CTETRA      5346       1     492      59      64      56
CTETRA      5347       1      55       1      58      54
CTETRA      5348       1      55      64      87      56
CTETRA      5349       1     408     278     710     509
CTETRA      5350       1    3591    1781    3592     786
CTETRA      5351       1     278     273     291     289
CTETRA      5352       1    1267     204    1268     772
CTETRA      5353       1    2926    1080    1615     641
CTETRA      5354       1    3592    3593    1810     787
CTETRA      5355       1     277     278     279     289
CTETRA      5356       1     380    1140     477     288
CTETRA      5357       1     259    1187     260     342
CTETRA      5358       1    3459     241     429     430
CTETRA      5359       1    3959    1142    1130     430
CTETRA      5360       1    3073    1031    1251     668
CTETRA      5361       1    1722     503     413      31
CTETRA      5362       1    1719     476    1720     503
CTETRA      5363       1    1768     949     655     656
CTETRA      5364       1    1738    1501    1500     654
CTETRA      5365       1     366     365     504     367
CTETRA      5366       1    3571     368    1720     372
CTETRA      5367       1     304     310     296     293
CTETRA      5368       1       5     366     365     504
CTETRA      5369       1     310     908     504       7
CTETRA      5370       1    3118     503      31     707
CTETRA      5371       1    1736    1751     729     512
CTETRA      5372       1    1782     655     344     352
CTETRA      5373       1    2209     306    2810     179
CTETRA      5374       1    3108    2271     373     301
CTETRA      5375       1    3488     768      32      33
CTETRA      5376       1    3336    3478    1633     557
CTETRA      5377       1    3460    3960    3959     430
CTETRA      5378       1    2204     307     653     179
CTETRA      5379       1    2204     307     179     650
CTETRA      5380       1    3741    1329    2506    2517
CTETRA      5381       1    3440    3441    2260     563
CTETRA      5382       1    2210     653     306     179
CTETRA      5383       1    2260     563    2263    1054
CTETRA      5384       1    3084    1530    1527     771
CTETRA      5385       1    3442    2263     428     792
CTETRA      5386       1    2209    2210     306     179
CTETRA      5387       1    2203    2206    2797     179
CTETRA      5388       1    1697     234     546     233
CTETRA      5389       1     500     494     502     496
CTETRA      5390       1    3148     448     452    1088
CTETRA      5391       1      67      12     139      20
CTETRA      5392       1    1880    1881    1895    1150
CTETRA      5393       1      15      13      12      11
CTETRA      5394       1     230     227     221     375
CTETRA      5395       1      94     117      95      97
CTETRA      5396       1      94     150     115     117
CTETRA      5397       1    1916    1931     373     301
CTETRA      5398       1      99     236     100      97
CTETRA      5399       1    3311    3410    3409     762
CTETRA      5400       1    1893    1894    1038     810
CTETRA      5401       1    1893    1894    1908    1038
CTETRA      5402       1    1946      68     113     141
CTETRA      5403       1    1892    1907    1906     827
CTETRA      5404       1    3240    1960      72      68
CTETRA      5405       1    3253    3254      67      68
CTETRA      5406       1    3313    1637    3414    1149
CTETRA      5407       1     145     139     363      20
CTETRA      5408       1    1879    1894    1893     810
CTETRA      5409       1    3252     113    3253     146
CTETRA      5410       1    1898    1913    1912     816
CTETRA      5411       1    1880    1895    1894    1150
CTETRA      5412       1       8       9      71      10
CTETRA      5413       1    1173     892    1147    1204
CTETRA      5414       1    3498    3812    3499     959
CTETRA      5415       1    3427    3428    2248    1173
CTETRA      5416       1    3464    3465    2265     300
CTETRA      5417       1    1817     662    1084    1107
CTETRA      5418       1    3240      72    3241      16
CTETRA      5419       1      19      12      67      20
CTETRA      5420       1    2505    1023    2559     471
CTETRA      5421       1    3573    1539    1841     895
CTETRA      5422       1    2559    1023     105     471
CTETRA      5423       1    3465     123    1627    1197
CTETRA      5424       1    3225    3226    1944    1551
CTETRA      5425       1    3095    2276    2277     798
CTETRA      5426       1    2558    2559     185     471
CTETRA      5427       1    3480    3481    2269     556
CTETRA      5428       1    1887    1902    1901     889
CTETRA      5429       1    3239    1931    1932    1542
CTETRA      5430       1    3343    1627    1625    1197
CTETRA      5431       1    1919    1920    1934     502
CTETRA      5432       1    2503     688    2504     471
CTETRA      5433       1    2880    1068    1103    1214
CTETRA      5434       1    3237    1933    1548    1549
CTETRA      5435       1     882     708     603     794
CTETRA      5436       1    1919    1934    1933     565
CTETRA      5437       1    1904    1919     298     242
CTETRA      5438       1    2878     953    2880    1214
CTETRA      5439       1    2876    2880    1103    1214
CTETRA      5440       1    2760     623    2877    1214
CTETRA      5441       1    3455    3456    2278     493
CTETRA      5442       1    3780    1351    2635     815
CTETRA      5443       1    3458    3459    2286     241
CTETRA      5444       1    2878     929     953    1214
CTETRA      5445       1    3487     885    1638      33
CTETRA      5446       1    3477    2270    2266     793
CTETRA      5447       1    2264     973     885     122
CTETRA      5448       1    3465    3466    2272     124
CTETRA      5449       1    3487    2283     885      32
CTETRA      5450       1    3238    3239    1932    1542
CTETRA      5451       1     885      32    1178      35
CTETRA      5452       1    1064     316     960     155
CTETRA      5453       1    1648    1651    1064    1040
CTETRA      5454       1    1650     149    1064     106
CTETRA      5455       1    1064     960    1040     384
CTETRA      5456       1    1902    1917    1916    1215
CTETRA      5457       1     853     317     216     852
CTETRA      5458       1    1932    1933    1549     299
CTETRA      5459       1    3463    3464    2265     300
CTETRA      5460       1    3127     853    1444     317
CTETRA      5461       1    3972    2271    2275     373
CTETRA      5462       1    3094    2274    2276     993
CTETRA      5463       1    1622    1623    1629     905
CTETRA      5464       1    3579    1931    3988    1556
CTETRA      5465       1     638     300     123     633
CTETRA      5466       1    3988    3225    1945    1555
CTETRA      5467       1    3565    3566    2341      30
CTETRA      5468       1     300     123     124     511
CTETRA      5469       1    3465     300     123     124
CTETRA      5470       1    3093    1540    1535     897
CTETRA      5471       1    2725    1065    1194    1066
CTETRA      5472       1    1638      33     885     745
CTETRA      5473       1    2713     623    1066    1214
CTETRA      5474       1    1032     442    1034     624
CTETRA      5475       1    1901      27    1215      79
CTETRA      5476       1     630     484     487     485
CTETRA      5477       1    1872    1873    1887     561
CTETRA      5478       1    2245    2249    1125     895
CTETRA      5479       1    1190     905    1147    1189
CTETRA      5480       1    1871     561    1886     889
CTETRA      5481       1    3404    1628    3405     489
CTETRA      5482       1    3342    1622    3469     926
CTETRA      5483       1    2706    1032    2725    1066
CTETRA      5484       1    3577    1915    1900     943
CTETRA      5485       1    2706    2713     623    1066
CTETRA      5486       1    2705    2731    1041    1066
CTETRA      5487       1    3429    3430    1190    1189
CTETRA      5488       1    3091    2243    2244     176
CTETRA      5489       1    3319    1632    1631     867
CTETRA      5490       1    3079    2245    2247    1123
CTETRA      5491       1    2271      47     373     301
CTETRA      5492       1    3255    2051    3256     595
CTETRA      5493       1    3135    1487    3136    1105
CTETRA      5494       1    3319    3423    1632     867
CTETRA      5495       1    1018     407     695    1073
CTETRA      5496       1    3121    1465      95     114
CTETRA      5497       1    2920    1611    1613      85
CTETRA      5498       1    3251    1948    3252     113
CTETRA      5499       1    3253    1558    1565     274
CTETRA      5500       1    1632     867     702     376
CTETRA      5501       1    3581    1946    1961     141
CTETRA      5502       1    3581    1961    3582     141
CTETRA      5503       1    2348    1018     695     984
CTETRA      5504       1    1631     867     803     892
CTETRA      5505       1    1958    1973    1972      44
CTETRA      5506       1    1959    1960    1974      72
CTETRA      5507       1    3253    1947    1946     113
CTETRA      5508       1    3137    3138    1564     548
CTETRA      5509       1    1564    1025    1061     548
CTETRA      5510       1    3133    1461     379     387
CTETRA      5511       1    1950    1951    1965      73
CTETRA      5512       1    3137    1061    1479     548
CTETRA      5513       1    2918     739    1118      86
CTETRA      5514       1    2225     915    2228     763
CTETRA      5515       1    2688     914    1188     915
CTETRA      5516       1    2746     684    2841     687
CTETRA      5517       1    3154    2290    3155     909
CTETRA      5518       1    1947    1962    1961      66
CTETRA      5519       1    3138    1477    3139     566
CTETRA      5520       1    2228    2229    1188     915
CTETRA      5521       1    2701     834     914     525
CTETRA      5522       1    3498    3813    3812     959
CTETRA      5523       1    1989    1990    2005     140
CTETRA      5524       1    1948    1963    1962      66
CTETRA      5525       1    1064    1040     106     384
CTETRA      5526       1    2697     834     525     526
CTETRA      5527       1    1962    1977    1976      66
CTETRA      5528       1    1966    1981    1980      73
CTETRA      5529       1    3819    2689    2603     915
CTETRA      5530       1    3875    2745    2750    1201
CTETRA      5531       1    3819    2229    2226     915
CTETRA      5532       1    2918    1609     739      86
CTETRA      5533       1    3496     409    3497       6
CTETRA      5534       1    2304       5     366     365
CTETRA      5535       1    2304       5     365       6
CTETRA      5536       1    2025    2041    2040     101
CTETRA      5537       1    1967    1968    1982    1109
CTETRA      5538       1     858     739      85     737
CTETRA      5539       1     113     141      68      16
CTETRA      5540       1    3241    1958    3242      72
CTETRA      5541       1    3160       5    2315       4
CTETRA      5542       1    1707     216     851     852
CTETRA      5543       1    3117     409    3496     707
CTETRA      5544       1     867    1192     868     892
CTETRA      5545       1    3318    1632    3423     702
CTETRA      5546       1    1985    1986    2000    1033
CTETRA      5547       1    1973    1988    1987     140
CTETRA      5548       1    1956    1971    1970      74
CTETRA      5549       1    2240    2244     702     176
CTETRA      5550       1    3423     867    2251     702
CTETRA      5551       1    2524    2541     692     265
CTETRA      5552       1    2384    1097     265     264
CTETRA      5553       1    2538    1097     459     264
CTETRA      5554       1    2532    2533     983     266
CTETRA      5555       1    2541     692     265     266
CTETRA      5556       1    1955    1956    1970     469
CTETRA      5557       1    2539     265    1097     264
CTETRA      5558       1    2746     271     684     687
CTETRA      5559       1    2745    1201     271     687
CTETRA      5560       1    3586    2050    2035     468
CTETRA      5561       1    3563    3876     270     273
CTETRA      5562       1    3351    1701    1703     119
CTETRA      5563       1    3152    1584    1586     568
CTETRA      5564       1    3877    2746     271     684
CTETRA      5565       1    3876     271     270     273
CTETRA      5566       1    1983    1984    1998    1109
CTETRA      5567       1    1613     737     739     738
CTETRA      5568       1    3551    2327    2326     180
CTETRA      5569       1    3875     843     271    1201
CTETRA      5570       1    3043    1692    3376     453
CTETRA      5571       1     843     271    1168     272
CTETRA      5572       1    1371    1375    1374     405
CTETRA      5573       1    1613      85     739     737
CTETRA      5574       1    2920      85    1118     739
CTETRA      5575       1    1967    1981     522    1109
CTETRA      5576       1    2848     211    2850    1092
CTETRA      5577       1    1986    1987    2001     480
CTETRA      5578       1    2621     211     812    1092
CTETRA      5579       1    2817    2848     812     211
CTETRA      5580       1    2508    2512    2509     690
CTETRA      5581       1    2116    2380    2381     534
CTETRA      5582       1    1985    2000    1999    1033
CTETRA      5583       1    2111     690    2513     534
CTETRA      5584       1    3266    2062    3267     463
CTETRA      5585       1    2919    2920    1118     739
CTETRA      5586       1    3265    2060    2061     463
CTETRA      5587       1    2041    2042    2057     593
CTETRA      5588       1    2101    2116    2381     690
CTETRA      5589       1    2375    2382    2381     690
CTETRA      5590       1    2058    2059     778    1133
CTETRA      5591       1    3555    3556    2325     590
CTETRA      5592       1    1485     371     452     237
CTETRA      5593       1    2918    2919    1118     739
CTETRA      5594       1    2371     689     690     535
CTETRA      5595       1    1295     287    1300    1162
CTETRA      5596       1    2029    2045    2044    1133
CTETRA      5597       1    2371     689    2375     690
CTETRA      5598       1    2044    2045    2060    1134
CTETRA      5599       1    2362     474     535     472
CTETRA      5600       1    3268    2064    3269     454
CTETRA      5601       1    2514     535     474     472
CTETRA      5602       1    2363     535     471     472
CTETRA      5603       1    2361    2458     473     258
CTETRA      5604       1    1300     287    2411    1162
CTETRA      5605       1    2506    2507    2517     472
CTETRA      5606       1    3265    3266    1585    1119
CTETRA      5607       1    3504    3806    3805     714
CTETRA      5608       1    3265    1044     780     910
CTETRA      5609       1    2044    2060    2059    1134
CTETRA      5610       1    3584    2020     136     678
CTETRA      5611       1    2451    2452     105    1023
CTETRA      5612       1    2451     105    2482    1023
CTETRA      5613       1    2450    2459    2451    1023
CTETRA      5614       1    1986    2001    2000    1033
CTETRA      5615       1    2012     337    2013     103
CTETRA      5616       1    3587    2065    2050     457
CTETRA      5617       1    2410    2411     287    1162
CTETRA      5618       1    2407    2408    2411     287
CTETRA      5619       1    3499    3500    2312       4
CTETRA      5620       1    2023    2039    2038     679
CTETRA      5621       1    1208     961     287    1012
CTETRA      5622       1     361     643     391     644
CTETRA      5623       1    3851    3557    3556     992
CTETRA      5624       1      38      40    1151     645
CTETRA      5625       1    1663    1664    1672     747
CTETRA      5626       1    2400    1208    2410     287
CTETRA      5627       1    3117     365    1723     707
CTETRA      5628       1    3566    2330    2341      30
CTETRA      5629       1    3262    3263    1576     850
CTETRA      5630       1    1909    1038     744    1037
CTETRA      5631       1    2508     689     474     535
CTETRA      5632       1    1895     744    1150     742
CTETRA      5633       1    3556     356     992     590
CTETRA      5634       1    2960      38    3731    1187
CTETRA      5635       1    3813    2600     586     587
CTETRA      5636       1    3499    3812    3811     959
CTETRA      5637       1    2754    2755    2837     622
CTETRA      5638       1    3402     259    3403     261
CTETRA      5639       1    1664    1667    1665     749
CTETRA      5640       1    1989    2005    2004     140
CTETRA      5641       1    2959      38    2960      39
CTETRA      5642       1     523     521      71       9
CTETRA      5643       1    1969    1970      74     469
CTETRA      5644       1    3580    3254    1946      68
CTETRA      5645       1    1419    1205     415     831
CTETRA      5646       1     922    1167    1043     831
CTETRA      5647       1    3738    2540    1324     848
CTETRA      5648       1    1655    1659    1660     148
CTETRA      5649       1    3135    3982    1486     198
CTETRA      5650       1    2676    2683    1167    1043
CTETRA      5651       1    1150     744     745     741
CTETRA      5652       1    1686     903    1688     901
CTETRA      5653       1    2454    2464    2472    1202
CTETRA      5654       1    2535    2542    2547    1210
CTETRA      5655       1    2497    2543    2544     350
CTETRA      5656       1    3634    3635    2074    2415
CTETRA      5657       1    3736    2532    2545     983
CTETRA      5658       1    2683    1167     922    1205
CTETRA      5659       1    2726    1156     958    1194
CTETRA      5660       1    2725    1065    2726    1194
CTETRA      5661       1    2726     958    2730    1194
CTETRA      5662       1    2787     958    1156    1194
CTETRA      5663       1    1078    1213     207    1076
CTETRA      5664       1    2788     651     958    1194
CTETRA      5665       1    2730     958     651    1194
CTETRA      5666       1    1323    2397     842     983
CTETRA      5667       1     236     237     239     235
CTETRA      5668       1    3438    2262     486     560
CTETRA      5669       1    2547    1210    1153     461
CTETRA      5670       1    3436    2262    2239     518
CTETRA      5671       1    3436     486    2262     518
CTETRA      5672       1    3436     488     486     518
CTETRA      5673       1    3436     630    3437     486
CTETRA      5674       1    3438     486     631     560
CTETRA      5675       1    3875     271    2745    1201
CTETRA      5676       1    2960    3731    3732    1187
CTETRA      5677       1     959    1168     290     272
CTETRA      5678       1    2410    1162     287    1196
CTETRA      5679       1    2595    1195    2600     402
CTETRA      5680       1    2600    1195     586     402
CTETRA      5681       1    3499     959    3811     290
CTETRA      5682       1    3289    2962    3403     345
CTETRA      5683       1    3720    2496    2544     350
CTETRA      5684       1    1215     369     126     926
CTETRA      5685       1    3500     290    3811    1140
CTETRA      5686       1    2595    1140    1141    1195
CTETRA      5687       1    3640    3650    2084    2345
CTETRA      5688       1    1796     344    1797    1078
CTETRA      5689       1    2817     219    2824     213
CTETRA      5690       1    3649     358     361     262
CTETRA      5691       1    3403    3732    3722    2081
CTETRA      5692       1    2647     212    1108     213
CTETRA      5693       1    2638     213    1108     218
CTETRA      5694       1    2641     954     212     211
CTETRA      5695       1    2960      39      38    1187
CTETRA      5696       1    3402     261     358     262
CTETRA      5697       1    2505    2506    1023     472
CTETRA      5698       1    3289    3403    1620     345
CTETRA      5699       1    2823    1108     213     218
CTETRA      5700       1    2968     414     900     114
CTETRA      5701       1    3639    3640    2084    2345
CTETRA      5702       1    3403    3732    2081     351
CTETRA      5703       1    3180    3181    1736    1494
CTETRA      5704       1    3289    1619    2963    1075
CTETRA      5705       1    2819    2823    1108     213
CTETRA      5706       1    2823    2824     219     213
CTETRA      5707       1    2819    1108     212     213
CTETRA      5708       1     885     122     973      35
CTETRA      5709       1    3261    3262     310     305
CTETRA      5710       1    2999    3000    1453     382
CTETRA      5711       1    3264     778     463     780
CTETRA      5712       1     595     104     305     594
CTETRA      5713       1     742     555     746     741
CTETRA      5714       1    2438    2440    2439     447
CTETRA      5715       1    1134     103     735     464
CTETRA      5716       1    2590    2591    2592    1117
CTETRA      5717       1    2059    2060     778    1134
CTETRA      5718       1     885      33      32      35
CTETRA      5719       1    3014    3015    1479     396
CTETRA      5720       1    1150     744     810      33
CTETRA      5721       1    2492    2495    2494     974
CTETRA      5722       1    3990    3269     455     313
CTETRA      5723       1    3017     406    3018     393
CTETRA      5724       1    3607    2096    2094    2357
CTETRA      5725       1     595     305     593     594
CTETRA      5726       1    2375    2376    2382     690
CTETRA      5727       1    3925    3926    2215    2814
CTETRA      5728       1    3257     595    2053     594
CTETRA      5729       1    2801    2805     835    1093
CTETRA      5730       1    2802    1093    2803     958
CTETRA      5731       1    2801     835    1144    1093
CTETRA      5732       1    2801    1193    2803    1093
CTETRA      5733       1    2818    2819     212     213
CTETRA      5734       1    3007    3360    3967    1679
CTETRA      5735       1    2511    2512    2515     534
CTETRA      5736       1    2153     311    2156     976
CTETRA      5737       1    2523    2531    2524     693
CTETRA      5738       1    2152     880    2153     976
CTETRA      5739       1    2651     212     880     976
CTETRA      5740       1    2152    2650    2651     976
CTETRA      5741       1    2638    2647    1108     213
CTETRA      5742       1    3713    2521    2068    2529
CTETRA      5743       1    2641     954    2648     212
CTETRA      5744       1    1845     770    1846    1060
CTETRA      5745       1     428     770    1054     785
CTETRA      5746       1    3628    2109    2101    2382
CTETRA      5747       1    3615    3616    2123    2471
CTETRA      5748       1    2098    2120    2121     386
CTETRA      5749       1     200     618     701     202
CTETRA      5750       1    2466    2470    2469     386
CTETRA      5751       1    1749    1503    1750     712
CTETRA      5752       1    3700    2589    2090     580
CTETRA      5753       1     792     841     770     785
CTETRA      5754       1    2999    1453    1020     382
CTETRA      5755       1    2566    2567    2584     470
CTETRA      5756       1    2475    2476    2480     680
CTETRA      5757       1    1845    1054    1060    1166
CTETRA      5758       1    3701    2576    2098    2584
CTETRA      5759       1     994    1045    1060     785
CTETRA      5760       1    1875     994    1045    1060
CTETRA      5761       1    1183     740     229     743
CTETRA      5762       1     229     740     817     743
CTETRA      5763       1    2241    1183    2243     178
CTETRA      5764       1    2243     229     176     177
CTETRA      5765       1    3419    2243    1183     229
CTETRA      5766       1    1634     228     229     784
CTETRA      5767       1     229     175     176     177
CTETRA      5768       1    3275    2922    3276    1613
CTETRA      5769       1    2361     474    2362     472
CTETRA      5770       1    2456     471    1023     472
CTETRA      5771       1    1778     898    1779    1136
CTETRA      5772       1    2125    2455    2462    1202
CTETRA      5773       1    2844     952     813    1092
CTETRA      5774       1    2454    2455    2464    1202
CTETRA      5775       1     894     905    1125     369
CTETRA      5776       1     894     516    1125     895
CTETRA      5777       1    2245     895    1125    1123
CTETRA      5778       1    3431     893    2245    1125
CTETRA      5779       1    2249    1190    1125     895
CTETRA      5780       1    3705    2126    3706    2502
CTETRA      5781       1    3430    2249    1190    1125
CTETRA      5782       1    3768    2236    2604     484
CTETRA      5783       1    2551    2552     676     185
CTETRA      5784       1    2563     680     681     676
CTETRA      5785       1    2141    2145    2144    1157
CTETRA      5786       1    2563     681    2572     676
CTETRA      5787       1    1045     560     890    1166
CTETRA      5788       1    3555     481    1713     356
CTETRA      5789       1    2552     189    2563     676
CTETRA      5790       1    2572     681    1182     676
CTETRA      5791       1    1630     799     881     803
CTETRA      5792       1    2619    2620    2636     781
CTETRA      5793       1    2171    2172    2175     622
CTETRA      5794       1    2143    2144    2147     256
CTETRA      5795       1    2144    2145    2148    1157
CTETRA      5796       1    3045    1690    3377     903
CTETRA      5797       1    1630    1631     802     803
CTETRA      5798       1    3898    3899    1336    2863
CTETRA      5799       1    2829     928    1003    1005
CTETRA      5800       1    2145    2857    2858    1157
CTETRA      5801       1    1893     761     760    1038
CTETRA      5802       1    1909     744    1910    1037
CTETRA      5803       1    2845    2851    1110     955
CTETRA      5804       1    2143    2146    2652     880
CTETRA      5805       1     760     810     762     807
CTETRA      5806       1     760    1038     761     762
CTETRA      5807       1    1908     761    1038     825
CTETRA      5808       1     761    1038     825      34
CTETRA      5809       1    3843    2155    3844    2650
CTETRA      5810       1    2922    1613    1035      85
CTETRA      5811       1    3845    2649    2158     869
CTETRA      5812       1    1909    1037    1924     825
CTETRA      5813       1    1323    2397    2398     842
CTETRA      5814       1    2541     842     692     266
CTETRA      5815       1    2539    2541     265     266
CTETRA      5816       1    2540    2541     842     692
CTETRA      5817       1    1325    2398     848     842
CTETRA      5818       1    2388     692     842     266
CTETRA      5819       1    2644    2645    2652     256
CTETRA      5820       1    2844    2845    2879     952
CTETRA      5821       1    2388    2395     842     692
CTETRA      5822       1    2169    2828    2821     635
CTETRA      5823       1     224     153     227     217
CTETRA      5824       1     240     232     374     235
CTETRA      5825       1     980     230     309     375
CTETRA      5826       1    1652    1091    1662     883
CTETRA      5827       1    1652     957     883     884
CTETRA      5828       1     238     236     239      97
CTETRA      5829       1    3588    1750    3194    1508
CTETRA      5830       1    2932    2933    1261     196
CTETRA      5831       1    3553    3554    2323     481
CTETRA      5832       1    3498    3499    2315       4
CTETRA      5833       1    2066    2416    2071     537
CTETRA      5834       1    2344    1096     458     979
CTETRA      5835       1    2829    1003     928     219
CTETRA      5836       1    2166    2828    2169     839
CTETRA      5837       1    2089    2405    2344    1096
CTETRA      5838       1    1137     979     458     543
CTETRA      5839       1    2343    1137    2347     979
CTETRA      5840       1     806    1050     697     840
CTETRA      5841       1    2083    2346     320     979
CTETRA      5842       1    2821    2837    2839     635
CTETRA      5843       1    3831    2734    2190    2735
CTETRA      5844       1    2071    2414    2415     537
CTETRA      5845       1    2403     458    2412     461
CTETRA      5846       1    2343    2403     460     458
CTETRA      5847       1    3834    2184    2181    2710
CTETRA      5848       1    3833    2187    2184    2703
CTETRA      5849       1    2343    2344     458     979
CTETRA      5850       1    2613    2614    2711    1161
CTETRA      5851       1    2845    2851    2846    1110
CTETRA      5852       1    2184    2710    2703    1199
CTETRA      5853       1    2404     459     458    1096
CTETRA      5854       1    3831    2190    3832    2735
CTETRA      5855       1     460    1210     458     461
CTETRA      5856       1    2412     458     459     461
CTETRA      5857       1    3120    1465    3121     114
CTETRA      5858       1    3828    2202    2199     657
CTETRA      5859       1    1283    1000    2499     986
CTETRA      5860       1    2587     524    2594    1116
CTETRA      5861       1    3933    3934    2191    2872
CTETRA      5862       1    2183    2184    2187    1199
CTETRA      5863       1    3906    3907    1408    2781
CTETRA      5864       1    2185    2186    2189    1120
CTETRA      5865       1    3692    2594    3693     570
CTETRA      5866       1    3936    2182    2185    2870
CTETRA      5867       1    3694     524    2587    1000
CTETRA      5868       1    3046    1489    1491     183
CTETRA      5869       1    2732    1041    2733    1049
CTETRA      5870       1    2726    2730    2728    1194
CTETRA      5871       1    3019     524     567     570
CTETRA      5872       1    3019    1165     567     524
CTETRA      5873       1    2760    2877    2876    1214
CTETRA      5874       1    2195     657    2198     864
CTETRA      5875       1    2199    2738     657    1049
CTETRA      5876       1    3828    2736    2202     657
CTETRA      5877       1    2805     306    2806     731
CTETRA      5878       1    3828    2199    2738     657
CTETRA      5879       1    2729    2733     651     657
CTETRA      5880       1    3639    2346    2345     320
CTETRA      5881       1    2849     954    2852     955
CTETRA      5882       1    2203     179    2795     650
CTETRA      5883       1    3645     465     933     466
CTETRA      5884       1    2851     955    1158    1157
CTETRA      5885       1    2211    2699    2214     653
CTETRA      5886       1    3922    2224    2227     763
CTETRA      5887       1    2216    2220    2219     526
CTETRA      5888       1    2622    1110    2623     955
CTETRA      5889       1    2928    1267    1265     641
CTETRA      5890       1    2137    2646    1110     256
CTETRA      5891       1    2852     955     954    1158
CTETRA      5892       1    2970    1466    1465      95
CTETRA      5893       1    2788    2794    2789     307
CTETRA      5894       1    2623     955    1110     256
CTETRA      5895       1    3406    3344    3465    1627
CTETRA      5896       1    1110     256     955    1157
CTETRA      5897       1    2144    2148    1158    1157
CTETRA      5898       1    2144    1158     256    1157
CTETRA      5899       1    2150     311     880    1158
CTETRA      5900       1    2849    2850     954    1092
CTETRA      5901       1    2852     954    2853    1158
CTETRA      5902       1    2522    2523     848     691
CTETRA      5903       1    2216     526    2219     167
CTETRA      5904       1    2519     691    2528    1102
CTETRA      5905       1    3593    3594    1825     787
CTETRA      5906       1    2523     691    2531     693
CTETRA      5907       1    2771    2776    1053     763
CTETRA      5908       1    2567     681    2575     721
CTETRA      5909       1    3579    1931    1556     373
CTETRA      5910       1    2563     680    2575     681
CTETRA      5911       1    2562    2572    1182     676
CTETRA      5912       1    2567     470     681     721
CTETRA      5913       1    2978    1457    1456     546
CTETRA      5914       1    1008    1090     128     776
CTETRA      5915       1    1297    2356    2354     287
CTETRA      5916       1    3438     630    3765     627
CTETRA      5917       1    2602    2606    2605    1186
CTETRA      5918       1    3816    2605    2604     533
CTETRA      5919       1    1008     128      92     776
CTETRA      5920       1    1830    1511    1518    1198
CTETRA      5921       1     787     208     572     789
CTETRA      5922       1    1008      22    1090     776
CTETRA      5923       1    3799    1421    1424    1043
CTETRA      5924       1    1078    1075    1213    1076
CTETRA      5925       1    1231    1235    1118     821
CTETRA      5926       1    3108    1556    1542     301
CTETRA      5927       1    1764     858     898     823
CTETRA      5928       1    1118    1129     898      62
CTETRA      5929       1    3574    1856     894     895
CTETRA      5930       1     898     821      62     823
CTETRA      5931       1    1624    1627    1628     126
CTETRA      5932       1    3062    1242    1241     821
CTETRA      5933       1    1242    1118      85     821
CTETRA      5934       1    2895     156    1228     932
CTETRA      5935       1    3433    2246    2247    1124
CTETRA      5936       1     858      85     821     822
CTETRA      5937       1    1702     309    1131     378
CTETRA      5938       1     117      98     235      97
CTETRA      5939       1    1624    1626    1625     126
CTETRA      5940       1    2418    2419     386     675
CTETRA      5941       1    2429     674    2445     675
CTETRA      5942       1    2568     720     675     721
CTETRA      5943       1    3487    3488      32      33
CTETRA      5944       1    2568     675    2585     721
CTETRA      5945       1    3088    2257      89     612
CTETRA      5946       1    2979    3353    1699     546
CTETRA      5947       1    1879    1880     810      83
CTETRA      5948       1    3276    2920    3277    1611
CTETRA      5949       1    2583     674    2585     675
CTETRA      5950       1    1016     448     451     133
CTETRA      5951       1     115      95     134     114
CTETRA      5952       1    3086    3087    1528     811
CTETRA      5953       1    2972      99    1691     100
CTETRA      5954       1    2970    1689      99     879
CTETRA      5955       1      94     117     115      95
CTETRA      5956       1     453    1088     371     118
CTETRA      5957       1    3121    1455    3122      96
CTETRA      5958       1    3441    2263    2260     563
CTETRA      5959       1    3120    3121    1661     114
CTETRA      5960       1    3981     379     414     114
CTETRA      5961       1    2970    1465     879      95
CTETRA      5962       1    2972    1455    1466      99
CTETRA      5963       1    2673    2727    1093     958
CTETRA      5964       1    3164    2298    2299     281
CTETRA      5965       1    1661    1662      94      96
CTETRA      5966       1    3364    1709     592     872
CTETRA      5967       1    1475    1476    1002     592
CTETRA      5968       1    2991    3346    1063     851
CTETRA      5969       1    3064    1265    1267     571
CTETRA      5970       1    3345    3346    1711    1063
CTETRA      5971       1    3458    3962    3961     429
CTETRA      5972       1    2522    2523    2540     848
CTETRA      5973       1    1860    1861    1875    1060
CTETRA      5974       1    1874    1875    1889     994
CTETRA      5975       1    1860    1875    1874    1045
CTETRA      5976       1    1062     226      70     153
CTETRA      5977       1    1709     873    1106     592
CTETRA      5978       1    1047     317     851     216
CTETRA      5979       1    1848     811     717    1067
CTETRA      5980       1    3762     201    3763    1163
CTETRA      5981       1    1047     871    1063    1046
CTETRA      5982       1    2979    1699    3352     547
CTETRA      5983       1    3331    3487    1638      33
CTETRA      5984       1    2977    3353    2978     546
CTETRA      5985       1    3346    1707    1063     851
CTETRA      5986       1    1897    1898    1912     816
CTETRA      5987       1    2991    1047    1450     851
CTETRA      5988       1    2368      81    2376     689
CTETRA      5989       1    1552     605     713    1055
CTETRA      5990       1    3339    3340    1630     881
CTETRA      5991       1    2371     690    2374     535
CTETRA      5992       1    2508     689    2519    1102
CTETRA      5993       1     504       7     639       6
CTETRA      5994       1     881     800     993    1146
CTETRA      5995       1    3487    3488    2282      32
CTETRA      5996       1    1914     708     805     604
CTETRA      5997       1    2970    1689    3357      99
CTETRA      5998       1    1630     802     799     803
CTETRA      5999       1    1727     514    1729     513
CTETRA      6000       1     410     963     846     328
CTETRA      6001       1     325     833     551     255
CTETRA      6002       1     304     310       7     296
CTETRA      6003       1    2308     321     514     322
CTETRA      6004       1    1939    1940    1545    1178
CTETRA      6005       1    3486    3487    2283     885
CTETRA      6006       1    3529    2306    2308     322
CTETRA      6007       1     906     519     268     551
CTETRA      6008       1    3487    2282    2283      32
CTETRA      6009       1    2673    1093     306     958
CTETRA      6010       1    2672    1144     835    1093
CTETRA      6011       1    2966    3966    1266    1080
CTETRA      6012       1    1880    1150    1894     810
CTETRA      6013       1    3329    3490    3330    1640
CTETRA      6014       1    2801    2804    1144     835
CTETRA      6015       1    2672    1144    2682     835
CTETRA      6016       1    2691     835     922     923
CTETRA      6017       1    3292    3293    2926    1615
CTETRA      6018       1    3145    1483    1482     510
CTETRA      6019       1    2804     922    1144     835
CTETRA      6020       1    2691    2698     835     923
CTETRA      6021       1    1648    1040     960    1048
CTETRA      6022       1    1890    1905    1904     250
CTETRA      6023       1    1098     870    1017    1048
CTETRA      6024       1    1130     430    1142    1121
CTETRA      6025       1    3961    3962    2741     804
CTETRA      6026       1    3130    1454    1451    1048
CTETRA      6027       1     907     695     559    1072
CTETRA      6028       1    1451    1017    1020    1040
CTETRA      6029       1     960    1048    1040     225
CTETRA      6030       1    3104    2286    3105    1207
CTETRA      6031       1    3310    3409    3998     719
CTETRA      6032       1    2807    2808    2811     834
CTETRA      6033       1    1936    1547    1543     500
CTETRA      6034       1    3131    1020     106    1040
CTETRA      6035       1    3975    3964    3455     530
CTETRA      6036       1    3053    1219    3054      18
CTETRA      6037       1    1413    1417    1416     415
CTETRA      6038       1    1230     935     937      18
CTETRA      6039       1     937      18     935     758
CTETRA      6040       1    3105    2287    3106     299
CTETRA      6041       1    2844    2849     952    1092
CTETRA      6042       1    3104    2289    2286    1207
CTETRA      6043       1     574     576      17     758
CTETRA      6044       1    2644     954     955     256
CTETRA      6045       1    3153     550    1585    1177
CTETRA      6046       1    2329     438     168     999
CTETRA      6047       1      17      18     757     758
CTETRA      6048       1    1219    1230     756      18
CTETRA      6049       1    1352     812    2827     814
CTETRA      6050       1    3584    2020    2005     136
CTETRA      6051       1     970     833     965     967
CTETRA      6052       1    3546    2318    1176     438
CTETRA      6053       1    3509    3510    2297     614
CTETRA      6054       1    2303     434     284     286
CTETRA      6055       1    3984    1673    1671     172
CTETRA      6056       1    3388    1730    3389     285
CTETRA      6057       1    3518     285    1139     286
CTETRA      6058       1     544     965     970     286
CTETRA      6059       1    3098     122    1541    1055
CTETRA      6060       1    3382    1717    1714     283
CTETRA      6061       1    3383    3384    3509    1715
CTETRA      6062       1     704     555    1191     713
CTETRA      6063       1    3509    2297    2299     614
CTETRA      6064       1    3098    2267    1191     713
CTETRA      6065       1    2267     704    1191     713
CTETRA      6066       1    3384    1715    1712     614
CTETRA      6067       1    2047     456    2063     463
CTETRA      6068       1    3334    3481    3335     704
CTETRA      6069       1    3483    2268     704     973
CTETRA      6070       1     704     740     745     741
CTETRA      6071       1    3098    1191    2264     122
CTETRA      6072       1    2264    1191     973     122
CTETRA      6073       1     138     116     134      95
CTETRA      6074       1    3496       6     365     707
CTETRA      6075       1    3866    4001    3572     412
CTETRA      6076       1    1532     890     560    1166
CTETRA      6077       1    3117    3814    3496     409
CTETRA      6078       1    1932     125     511     301
CTETRA      6079       1    1917    1215     125     301
CTETRA      6080       1     123     126     125     920
CTETRA      6081       1    1215     125     124     126
CTETRA      6082       1    1902     125    1215     889
CTETRA      6083       1    1585     909    1119     550
CTETRA      6084       1    3543    2322    2321     968
CTETRA      6085       1    1731    1733     267     269
CTETRA      6086       1     298     511     125     920
CTETRA      6087       1     124     511     125     301
CTETRA      6088       1    1373    1374    1377     404
CTETRA      6089       1    3082    1532     560    1166
CTETRA      6090       1    2475     680     189     676
CTETRA      6091       1     443     439    1179     437
CTETRA      6092       1    3496    2304     365       6
CTETRA      6093       1    2474    2477     681     721
CTETRA      6094       1    2655    1195    2656     220
CTETRA      6095       1    3502    3808    3807     478
CTETRA      6096       1    2834     403    2835     220
CTETRA      6097       1    3174    3175    1669     257
CTETRA      6098       1    1356     781    1359     782
CTETRA      6099       1    2553      65     680     189
CTETRA      6100       1    2553     680    2563     189
CTETRA      6101       1    2718    2727    1156    1193
CTETRA      6102       1     168     497     169     171
CTETRA      6103       1    2317    2324     992     590
CTETRA      6104       1    2672    2719    1144    1193
CTETRA      6105       1    3152    2296    2295     568
CTETRA      6106       1    2800    1156    2803    1193
CTETRA      6107       1    3506    3507    2298     283
CTETRA      6108       1    3510    3511    2301     443
CTETRA      6109       1    3221    1844    1532    1534
CTETRA      6110       1    3267    1586    1584    1177
CTETRA      6111       1    2803    1093    1193     958
CTETRA      6112       1    2799    2801    1144    1193
CTETRA      6113       1    3276    2920    1611    1613
CTETRA      6114       1    2672    1193    1144    1093
CTETRA      6115       1    2800    1156    1193     418
CTETRA      6116       1    3854    3551    1724     180
CTETRA      6117       1    2508    1102    2518     474
CTETRA      6118       1    2520    2531     689     693
CTETRA      6119       1    3860    3542    3541     966
CTETRA      6120       1    2112    2510    2513     690
CTETRA      6121       1    2101     690    2382     642
CTETRA      6122       1    3551    3552    2327     180
CTETRA      6123       1    2368     689    2369     691
CTETRA      6124       1    3384    3510    3509     614
CTETRA      6125       1    3553     180    1712     481
CTETRA      6126       1    2297    2301     280     443
CTETRA      6127       1     184     172     174     171
CTETRA      6128       1    3082     560    1054    1166
CTETRA      6129       1    2510    2520     689     475
CTETRA      6130       1    2369    2370     845    1102
CTETRA      6131       1    1668    1670    1669     846
CTETRA      6132       1    2372    2373    1102     474
CTETRA      6133       1    3603    2352     696     936
CTETRA      6134       1    3692    2594     570    1074
CTETRA      6135       1    2334     515     257     513
CTETRA      6136       1    1477     566    1478     393
CTETRA      6137       1    3695    1181    1165     573
CTETRA      6138       1     696     936    1001     694
CTETRA      6139       1    3538    3539    2320    1006
CTETRA      6140       1    3527    3528    2309     906
CTETRA      6141       1    3393    1733    1731    1148
CTETRA      6142       1     696    1116    1000     986
CTETRA      6143       1    3862    3863    1731     267
CTETRA      6144       1    2390      80      81     693
CTETRA      6145       1    2520     693     689     475
CTETRA      6146       1    2962     820     345    1127
CTETRA      6147       1     349     359     351     360
CTETRA      6148       1    3646    3647    2342     466
CTETRA      6149       1    2368      81     689     693
CTETRA      6150       1    2102    2106    2103     475
CTETRA      6151       1    2079     979     320     359
CTETRA      6152       1    3635    2077    2074    2405
CTETRA      6153       1    2530      80      81     263
CTETRA      6154       1    2530      81      80     693
CTETRA      6155       1    3890    3891    1358    2833
CTETRA      6156       1     349    1137     350     359
CTETRA      6157       1    2345    2346    2347     320
CTETRA      6158       1    2346    2347     320     979
CTETRA      6159       1    1781     344     786     352
CTETRA      6160       1    2342     357    2347    1137
CTETRA      6161       1    3053     935    1230      18
CTETRA      6162       1     357     349    1137    1210
CTETRA      6163       1    1297     939    2356     287
CTETRA      6164       1    1296    1297    1299     287
CTETRA      6165       1     432     877     381     394
CTETRA      6166       1     855     859     899     860
CTETRA      6167       1    1755    1756    1770     576
CTETRA      6168       1    3642     939    2356     940
CTETRA      6169       1    1779    1780     859     899
CTETRA      6170       1    1764    1779     858     899
CTETRA      6171       1    1296    1298    1297    1100
CTETRA      6172       1    2896    2897    1230     937
CTETRA      6173       1    3628    3629    2109    2382
CTETRA      6174       1     858     899     859     860
CTETRA      6175       1    1749     822    1764     823
CTETRA      6176       1    3889    1361    2831    2833
CTETRA      6177       1    2067     263    2107     537
CTETRA      6178       1     862     712     736     860
CTETRA      6179       1    1780     862     855     899
CTETRA      6180       1    2518    2527     473    1102
CTETRA      6181       1    2391     845    2392     848
CTETRA      6182       1    2370     473    2393     845
CTETRA      6183       1    1332    2393     473     845
CTETRA      6184       1    3629    3630    2108    2377
CTETRA      6185       1    2523    2524    2541     692
CTETRA      6186       1    3629    2108    2109    2377
CTETRA      6187       1    1321     473    2527     845
CTETRA      6188       1    1321    1332     473     845
CTETRA      6189       1    1326    2392     845     848
CTETRA      6190       1    1326     845    1327     848
CTETRA      6191       1    1418    1419    1167    1205
CTETRA      6192       1    1419    1422    1167     831
CTETRA      6193       1    2671    1144    2719    1205
CTETRA      6194       1    3937    3938    2179    2869
CTETRA      6195       1    3663    1332    1322    2393
CTETRA      6196       1    1332    2393    2360     473
CTETRA      6197       1    1271    2565     187     194
CTETRA      6198       1    2670    1167    2683    1205
CTETRA      6199       1    2671    2683     922    1205
CTETRA      6200       1    1416    1419    1205     415
CTETRA      6201       1    2386    2387    2410    1162
CTETRA      6202       1    3643    3644    2400    1208
CTETRA      6203       1    3644    2401    2400    1208
CTETRA      6204       1    3643    2400    2355     939
CTETRA      6205       1    1412    1415    2722    1205
CTETRA      6206       1    2895    3644    2896     160
CTETRA      6207       1    3797    1415    1418    1205
CTETRA      6208       1    3797    2722    1415    1205
CTETRA      6209       1    2984    1447     120     121
CTETRA      6210       1    3349    3350    1704     120
CTETRA      6211       1    3350    3351    1703     120
CTETRA      6212       1     119     120     121     315
CTETRA      6213       1     938     756     937     162
CTETRA      6214       1    2524    2539    2541     265
CTETRA      6215       1    3129    1651    1648    1048
CTETRA      6216       1    2388    2390     692     265
CTETRA      6217       1    2073     537    1096    1172
CTETRA      6218       1    1880    1881    1150      88
CTETRA      6219       1    1881    1896    1150     743
CTETRA      6220       1    1149      82      33      84
CTETRA      6221       1      82     612      83      84
CTETRA      6222       1      88     886     745      84
CTETRA      6223       1    1149     612      82      84
CTETRA      6224       1    2073    2076    2075    1172
CTETRA      6225       1    2074    2405    2077    1096
CTETRA      6226       1    1150      83      88      84
CTETRA      6227       1    3654    3655    1300    2411
CTETRA      6228       1    1896     742    1150     743
CTETRA      6229       1    1150     744      33     745
CTETRA      6230       1    3606    3607    2094    2357
CTETRA      6231       1    1468    1061     432     396
CTETRA      6232       1     854     494     493     243
CTETRA      6233       1    2998    3599    3598    1019
CTETRA      6234       1    1649    1655    1660     148
CTETRA      6235       1    1550     502    1207     565
CTETRA      6236       1    3104    2289    1207     494
CTETRA      6237       1     242    1058    1207     565
CTETRA      6238       1    2099    2417    2120     386
CTETRA      6239       1    2289     854     241    1207
CTETRA      6240       1     242     502    1207     243
CTETRA      6241       1    2358    2431    2441     423
CTETRA      6242       1    2590     447     419     420
CTETRA      6243       1    1097    1096     537    1172
CTETRA      6244       1    1658    1659    1662    1091
CTETRA      6245       1    3697    1164    3688     319
CTETRA      6246       1    3408    2094    2095     424
CTETRA      6247       1     459    1096    1097    1172
CTETRA      6248       1    2413    1097    1096     537
CTETRA      6249       1    3686    3604    1287    2351
CTETRA      6250       1    3680    1277    1274    2447
CTETRA      6251       1    3690    2495    2491    1185
CTETRA      6252       1    3038    3372    3373    1132
CTETRA      6253       1    2525      80    2530     263
CTETRA      6254       1    2107      80    2366     537
CTETRA      6255       1    3677    1310    1311    2426
CTETRA      6256       1     406    1185     407     399
CTETRA      6257       1    2758    2759    2875    1030
CTETRA      6258       1    2069    2072    2526     263
CTETRA      6259       1    2816    2827     781     812
CTETRA      6260       1    2629     813     812     815
CTETRA      6261       1    2643     781     812     211
CTETRA      6262       1    2620    2643     781     812
CTETRA      6263       1    1270    1272    1271     194
CTETRA      6264       1    3618    3619    2129    2455
CTETRA      6265       1    2706     623    1032    1066
CTETRA      6266       1    2621     812    2629     813
CTETRA      6267       1    1308    1309    1311     187
CTETRA      6268       1    2816    2817    2848     812
CTETRA      6269       1    2848     812     211    1092
CTETRA      6270       1    2843     813     812    1092
CTETRA      6271       1    2843    2844     813    1092
CTETRA      6272       1    3619    2125    2455    2462
CTETRA      6273       1     466     357     462     648
CTETRA      6274       1    3612    2120    2099    2417
CTETRA      6275       1    2892     361    3648     643
CTETRA      6276       1    2739    2740    2884     400
CTETRA      6277       1    2892     391     361     643
CTETRA      6278       1    3647     643    3648     357
CTETRA      6279       1    2825    2833    1003     782
CTETRA      6280       1    2894    3647     933     643
CTETRA      6281       1    2894     643     933     932
CTETRA      6282       1    2454    1202    2472    1155
CTETRA      6283       1    2475     189    2478     676
CTETRA      6284       1    3857    1176    1730     438
CTETRA      6285       1     968    1176     438     972
CTETRA      6286       1    3857    3858    1730    1176
CTETRA      6287       1    3859    3544     968    1176
CTETRA      6288       1    3858    3859    1732    1176
CTETRA      6289       1    2774    2777    2775     831
CTETRA      6290       1    3389    3519    3518    1139
CTETRA      6291       1    1419    1167    1205     831
CTETRA      6292       1    3544    3545     968    1176
CTETRA      6293       1    3614    3615    2122    2470
CTETRA      6294       1    1732    1139     285     972
CTETRA      6295       1    3830    2193    2734    1049
CTETRA      6296       1    2704    1103    2732    1120
CTETRA      6297       1    3830    2738    2196    1049
CTETRA      6298       1    3953    2176    2175    2756
CTETRA      6299       1    2754     836    2756     622
CTETRA      6300       1    2626    1110     952     953
CTETRA      6301       1    2622    2626    1110     952
CTETRA      6302       1    2614    1110    2626    1069
CTETRA      6303       1    2614    1110    1069    1161
CTETRA      6304       1    1614     204     641     646
CTETRA      6305       1    1035     822     737     860
CTETRA      6306       1    3676    3677    1311    2426
CTETRA      6307       1    1313    1314    1320    2557
CTETRA      6308       1     855     737     859     860
CTETRA      6309       1    3172    2332    3173     846
CTETRA      6310       1    1270    1271    1308     194
CTETRA      6311       1    3704    2130    2561    2571
CTETRA      6312       1    2850     212     954     211
CTETRA      6313       1     204     195     210     738
CTETRA      6314       1    1320    2557    2555     105
CTETRA      6315       1     199     942    1136     738
CTETRA      6316       1    1613    1614    1035     737
CTETRA      6317       1    2457    2458    2459     258
CTETRA      6318       1    2935    1260     390     205
CTETRA      6319       1     941    1115     205     206
CTETRA      6320       1     390     205     947     942
CTETRA      6321       1    1370    1374    1373     404
CTETRA      6322       1     941     205     947     206
CTETRA      6323       1    2935     205     390     824
CTETRA      6324       1    2856    1111    1110    1157
CTETRA      6325       1    2849     954     955    1092
CTETRA      6326       1    2997    3601    3600     695
CTETRA      6327       1    3597    3598    2431     423
CTETRA      6328       1    1845    1534    1054    1166
CTETRA      6329       1    3698    2093    2092    2493
CTETRA      6330       1    3689    2495    3690     397
CTETRA      6331       1    2881     952    1110     953
CTETRA      6332       1    2623    2644     955     256
CTETRA      6333       1    2879     952    2881     953
CTETRA      6334       1    2438    2439    2449     447
CTETRA      6335       1    2430    2440    2438     420
CTETRA      6336       1     385     387     382     383
CTETRA      6337       1    2624    2626     952     953
CTETRA      6338       1    2622    2625     952    1092
CTETRA      6339       1    2881    1110    1069     953
CTETRA      6340       1    2622     952     955    1092
CTETRA      6341       1    2821    2838    2837     635
CTETRA      6342       1     671     777     381     425
CTETRA      6343       1    3620    3621    2128    2461
CTETRA      6344       1     401     108     399     394
CTETRA      6345       1    1752    1753    1767     656
CTETRA      6346       1     427     432     425     394
CTETRA      6347       1    2452    1023    2456     471
CTETRA      6348       1    2505    2507    2506     472
CTETRA      6349       1    3892    3893    1352    2827
CTETRA      6350       1    1322    2393    1332     845
CTETRA      6351       1    2786    2791    2792    1065
CTETRA      6352       1    2114    2511    2516     534
CTETRA      6353       1    3002    3408     876     671
CTETRA      6354       1    1321    1322    1332     845
CTETRA      6355       1     423     426     424     425
CTETRA      6356       1    2445     338     672     674
CTETRA      6357       1    2517     474     473     258
CTETRA      6358       1    2582     672     338     674
CTETRA      6359       1    2578     674     338    1114
CTETRA      6360       1    3631    2366    2107    2378
CTETRA      6361       1    1277    2447    2436     341
CTETRA      6362       1    2503    2516    2515     688
CTETRA      6363       1    2449     985     338    1114
CTETRA      6364       1    3033    3370    3034    1131
CTETRA      6365       1    2364    2379    2365     536
CTETRA      6366       1    2350    2435     340     341
CTETRA      6367       1    3792    1400    1403    2721
CTETRA      6368       1    1328    1332    2360     473
CTETRA      6369       1    2578     338    2579    1114
CTETRA      6370       1    2361    2370    2373     473
CTETRA      6371       1    1901    1902    1215     889
CTETRA      6372       1    2368     691    2389     693
CTETRA      6373       1    3631    3632    2107    2366
CTETRA      6374       1    2964    1618    2965    1076
CTETRA      6375       1    3325    3404    3434     491
CTETRA      6376       1    2198    2199    2202     657
CTETRA      6377       1    3710    2112    3711    2513
CTETRA      6378       1    2370     473     845    1102
CTETRA      6379       1     516     491    1124     921
CTETRA      6380       1    2076    2077    2088    1096
CTETRA      6381       1    3649    2345    2347     320
CTETRA      6382       1    2086    2087    2088     543
CTETRA      6383       1     893     126     491     889
CTETRA      6384       1     893     369     905     126
CTETRA      6385       1    1871     369     516     889
CTETRA      6386       1    2389    2391    2395     848
CTETRA      6387       1     488     489     626     921
CTETRA      6388       1    2508     689    1102     474
CTETRA      6389       1    1215     125     126     889
CTETRA      6390       1    1871    1886     369     889
CTETRA      6391       1    3634    2071    2414    2415
CTETRA      6392       1    2344    2405    2404    1096
CTETRA      6393       1    1215     126      47     926
CTETRA      6394       1     905     126     369     926
CTETRA      6395       1     349     350     351     359
CTETRA      6396       1     357     359     349     360
CTETRA      6397       1    1796    1797    1811    1078
CTETRA      6398       1    3325    1628     491     944
CTETRA      6399       1     349    1137    1210     350
CTETRA      6400       1    2079     979     350     543
CTETRA      6401       1    2547    2549    2548    1153
CTETRA      6402       1    2535    2536    2542     543
CTETRA      6403       1    3719    2536    2086    2544
CTETRA      6404       1    3732    2498    2081     351
CTETRA      6405       1    2962    1263     820    1127
CTETRA      6406       1    2525    2526    2538    1097
CTETRA      6407       1    2080    2498    2496     350
CTETRA      6408       1    2497     349    2543     350
CTETRA      6409       1    3720    2080    2496     350
CTETRA      6410       1    3741    1333    1329    2517
CTETRA      6411       1    2553    2557    2554      65
CTETRA      6412       1    1304    2483    2484      69
CTETRA      6413       1    2843    2848    2844    1092
CTETRA      6414       1    3740    1333    3741    2517
CTETRA      6415       1    3720    2544    2086     350
CTETRA      6416       1    3747    1315    1306    2554
CTETRA      6417       1    1337    1338    1341    1026
CTETRA      6418       1    1323    1325    1324     842
CTETRA      6419       1    2563     189     680     676
CTETRA      6420       1    2131    2132    2180    1199
CTETRA      6421       1    3745    1314    3746    2557
CTETRA      6422       1    2681     731     306    1093
CTETRA      6423       1    2636    2643    1003     781
CTETRA      6424       1    3816    2236    2235     533
CTETRA      6425       1    2637    1003    2643     211
CTETRA      6426       1    2844    2879    2862     813
CTETRA      6427       1    3830    2734    2738    1049
CTETRA      6428       1    3782    1345    3783    2634
CTETRA      6429       1    2641    2642     954     211
CTETRA      6430       1    3744    1320    3745    2555
CTETRA      6431       1    1319    2481    2485     105
CTETRA      6432       1    2816    2825     781     782
CTETRA      6433       1    1352     781    2827     812
CTETRA      6434       1    2621    2643     812     211
CTETRA      6435       1    2132    2181    2180    1199
CTETRA      6436       1    2127    1155    2128     688
CTETRA      6437       1    2963    1213    1264    1127
CTETRA      6438       1    1263    1127    1264     209
CTETRA      6439       1    1078    1213    1127     209
CTETRA      6440       1    2122     386    2470     470
CTETRA      6441       1    3705    2126    2502    2561
CTETRA      6442       1     344    1070     345    1128
CTETRA      6443       1    3833    2184    3834    2710
CTETRA      6444       1    2963    1127     345    1075
CTETRA      6445       1    2118    2124    2119    1182
CTETRA      6446       1    3830    2196    2193    1049
CTETRA      6447       1    2125    1202    2462    1155
CTETRA      6448       1    1827    1070    1828     819
CTETRA      6449       1    3703    2118    3704    2571
CTETRA      6450       1    1078    1127    1070     209
CTETRA      6451       1    3616    3617    2119    2467
CTETRA      6452       1     820     345    1070    1128
CTETRA      6453       1     850     366     908     367
CTETRA      6454       1    2098    2584    2576     386
CTETRA      6455       1      30      31     718      25
CTETRA      6456       1    3159    2304       5     366
CTETRA      6457       1    3701    2098    2121    2584
CTETRA      6458       1    3701    2121    3702    2584
CTETRA      6459       1    3261    1579    1159     366
CTETRA      6460       1    2844    2879     813     952
CTETRA      6461       1    2152    2651     880     976
CTETRA      6462       1    2837    2838    2842    1050
CTETRA      6463       1    3158    3159    1579     366
CTETRA      6464       1    1854    1535     897      93
CTETRA      6465       1    3400    1719    1723     365
CTETRA      6466       1    1719     365     476     503
CTETRA      6467       1    2389     692    2390     693
CTETRA      6468       1    2525      80    1097     265
CTETRA      6469       1    2390     693     692     265
CTETRA      6470       1    2367    2390      80      81
CTETRA      6471       1    2532     983     842     266
CTETRA      6472       1    2524     692     693     265
CTETRA      6473       1     426     444     433     421
CTETRA      6474       1    2523    2524     692     693
CTETRA      6475       1    2524     693    2530     265
CTETRA      6476       1    2519     689     691    1102
CTETRA      6477       1    2520    2530     693     475
CTETRA      6478       1    3690    2491    3691    1185
CTETRA      6479       1    2999    3598    3597     670
CTETRA      6480       1    2674     307     306     653
CTETRA      6481       1    2730     306     307     958
CTETRA      6482       1    2994     907    1098     694
CTETRA      6483       1    2673     306    2730     958
CTETRA      6484       1    2801    1144    1193    1093
CTETRA      6485       1    3210    1855    1535    1540
CTETRA      6486       1    1019    1018     987     399
CTETRA      6487       1    2491    2592    2593    1185
CTETRA      6488       1    2673    2681    2680     306
CTETRA      6489       1    2805     731     835    1093
CTETRA      6490       1    3323    3431    3430     905
CTETRA      6491       1    2472    1155     676     185
CTETRA      6492       1    2575     680     720     721
CTETRA      6493       1    2225    2229    2228     915
CTETRA      6494       1     538     533    1186     542
CTETRA      6495       1    1310     187    2426     194
CTETRA      6496       1    3401    1621     259     348
CTETRA      6497       1    3730      38     349     351
CTETRA      6498       1    1310    1311    2426     187
CTETRA      6499       1    2222     525    2225     913
CTETRA      6500       1    1939    1544     610    1178
CTETRA      6501       1    1904    1905    1919     242
CTETRA      6502       1    2422    2476     187      65
CTETRA      6503       1    2234    2236    2237     542
CTETRA      6504       1    2477     720     187     680
CTETRA      6505       1    2421     187    2477     720
CTETRA      6506       1    3456    3963     975     783
CTETRA      6507       1    2767    2774     658     634
CTETRA      6508       1    3460    3959    3958     951
CTETRA      6509       1    3957    3958    2763     722
CTETRA      6510       1    3459    3961    3960     429
CTETRA      6511       1    3958    3959    2764    1130
CTETRA      6512       1    3461    3958    3957     951
CTETRA      6513       1     914     763     915     913
CTETRA      6514       1    2231     728    1186     542
CTETRA      6515       1    1858    1859    1873     890
CTETRA      6516       1    3911    1423    1420    2775
CTETRA      6517       1    1424    1428    1427    1043
CTETRA      6518       1    2420    2421    2477     720
CTETRA      6519       1    1352    1353     812     814
CTETRA      6520       1    2815    2843    2865     814
CTETRA      6521       1    2845     955    1110     952
CTETRA      6522       1    2426     187    2427     194
CTETRA      6523       1    2816    2848    2843     812
CTETRA      6524       1    2427     194     187     720
CTETRA      6525       1    1421    1422    1425    1167
CTETRA      6526       1    1386    1099     829     828
CTETRA      6527       1    3389    1732    3390    1139
CTETRA      6528       1     435    1179     439     437
CTETRA      6529       1    2156    2160    2159     976
CTETRA      6530       1    1730     284     438     972
CTETRA      6531       1    3839    2143    3840    2652
CTETRA      6532       1    3389    1730    1732     285
CTETRA      6533       1    1734     965     544     972
CTETRA      6534       1     893    1125     905     369
CTETRA      6535       1    2878    2881    2880     953
CTETRA      6536       1    2189    2190    2193    1120
CTETRA      6537       1    2478     676     189     185
CTETRA      6538       1    3431     905    1626     944
CTETRA      6539       1     893     369     126     889
CTETRA      6540       1    2624    2625    2628     930
CTETRA      6541       1    2125    2126    2130    1202
CTETRA      6542       1    1343    2865    2866    1027
CTETRA      6543       1    1367    1368     928    1005
CTETRA      6544       1     516    1125     893     369
CTETRA      6545       1    1190    1125     905    1189
CTETRA      6546       1    2801    2802    2805    1093
CTETRA      6547       1    1355    1356    1359     782
CTETRA      6548       1    3844    2155    2158    2649
CTETRA      6549       1    3409    3410     809     762
CTETRA      6550       1    2092     419     426     421
CTETRA      6551       1     768      33     762      34
CTETRA      6552       1     609     768     762     611
CTETRA      6553       1    1640     609     768     762
CTETRA      6554       1    2473    2474    2477     681
CTETRA      6555       1    1639     768      33     762
CTETRA      6556       1    2596     402    2599     405
CTETRA      6557       1    3410    3411     809     762
CTETRA      6558       1    2775    2778    2798     415
CTETRA      6559       1    2711    1069    2712    1199
CTETRA      6560       1    2816    2827    2826     782
CTETRA      6561       1    2621    2642    2643     211
CTETRA      6562       1    3810     380    1140     477
CTETRA      6563       1    1366    2667    2668    1004
CTETRA      6564       1    2655     697     477     220
CTETRA      6565       1    2787    2788     958    1194
CTETRA      6566       1    2851    1110     955    1157
CTETRA      6567       1    2822     840    2838     635
CTETRA      6568       1    2282      32     610    1178
CTETRA      6569       1    2654     477    2655     697
CTETRA      6570       1    2144    2148    2147    1158
CTETRA      6571       1    2783    1065    1094    1034
CTETRA      6572       1    2168    2169    2172     635
CTETRA      6573       1    2161    2165    2164     532
CTETRA      6574       1    3810    1140    2595     477
CTETRA      6575       1    1370    2743    2832     928
CTETRA      6576       1    2647    2648    2651     212
CTETRA      6577       1    2595    2655     477    1195
CTETRA      6578       1    2595     477    1140    1195
CTETRA      6579       1    3844    2155    2649    2650
CTETRA      6580       1    3269     312      45     434
CTETRA      6581       1    2174    1051    2177    1036
CTETRA      6582       1    2607    2661    2660     531
CTETRA      6583       1    2653     806    2661     531
CTETRA      6584       1    2653     791     806     531
CTETRA      6585       1     595     104     455     305
CTETRA      6586       1    2640    2664    2663     532
CTETRA      6587       1     791     806     531     490
CTETRA      6588       1    3846    2161    2164    2640
CTETRA      6589       1    2173    2609     531    1036
CTETRA      6590       1    3500    3810    3809     380
CTETRA      6591       1    2170    2609    2607     531
CTETRA      6592       1    3846    2164    3847    2664
CTETRA      6593       1    1511     665    1198     668
CTETRA      6594       1    1370    1371    1374     404
CTETRA      6595       1    1362     782    1003    1005
CTETRA      6596       1    1817     662    1107     668
CTETRA      6597       1    1816     662    1817     668
CTETRA      6598       1    2171    1050     806     532
CTETRA      6599       1    3890    1358    1361    2833
CTETRA      6600       1     667     665     668     661
CTETRA      6601       1    1251     667     665     668
CTETRA      6602       1    1855    1535    1540     897
CTETRA      6603       1     662    1031    1107     668
CTETRA      6604       1    2090    2091    2100     392
CTETRA      6605       1    2027     103    2042     101
CTETRA      6606       1    2155    2158    2649     869
CTETRA      6607       1    2366    2383    2416     537
CTETRA      6608       1    1832    1107    1515     668
CTETRA      6609       1    2525    1097    2539     265
CTETRA      6610       1    2404    2413     459    1096
CTETRA      6611       1    3538    1006    2316     267
CTETRA      6612       1    3859    3542    3860     966
CTETRA      6613       1    3539    1006     267    1007
CTETRA      6614       1    2214     306    2699     731
CTETRA      6615       1    3825    2208    3826    2675
CTETRA      6616       1    2207    2208    2211     653
CTETRA      6617       1    3824    2211    3825    2679
CTETRA      6618       1    3798    2676    2670    1167
CTETRA      6619       1    3538    3539    1006     267
CTETRA      6620       1    1735     966    1007     967
CTETRA      6621       1    1193     415     418     416
CTETRA      6622       1    2981    1441     547     119
CTETRA      6623       1    2979     547    1457     546
CTETRA      6624       1    2210    2214     306     653
CTETRA      6625       1    3352    1699    1701     547
CTETRA      6626       1    3958    2764    2763    1203
CTETRA      6627       1    1702     309     378     887
CTETRA      6628       1    2981     547    1701     119
CTETRA      6629       1     119     315      52     378
CTETRA      6630       1    1091     314     316     957
CTETRA      6631       1    2368    2390      81     693
CTETRA      6632       1     150     117     154      13
CTETRA      6633       1    2788    2802    2803     958
CTETRA      6634       1    1648    1091    1653     316
CTETRA      6635       1    3823    2214    3824    2699
CTETRA      6636       1    2210    2211    2214     653
CTETRA      6637       1    1659    1091     148     883
CTETRA      6638       1    3125      52    1652     884
CTETRA      6639       1    2526    2537    2538    1172
CTETRA      6640       1     316     957     314     221
CTETRA      6641       1    1648     148    1091     316
CTETRA      6642       1    1409    1410    1413     416
CTETRA      6643       1    2211    2679    2699     653
CTETRA      6644       1    2806    2809    2808     167
CTETRA      6645       1    1418    1419    1422    1167
CTETRA      6646       1    2681    2698     834     835
CTETRA      6647       1     400     658     621     634
CTETRA      6648       1    2799    2803    2801    1193
CTETRA      6649       1    3989    3240     110      19
CTETRA      6650       1    2180    2184    2183    1199
CTETRA      6651       1    3833    2703    2184    2710
CTETRA      6652       1     110      67      19     137
CTETRA      6653       1    3989     110    3254      67
CTETRA      6654       1    2672    2673    2727    1093
CTETRA      6655       1    2705    1066    1103    1214
CTETRA      6656       1    2131    2180    2179    1029
CTETRA      6657       1    2183    2187    2186    1120
CTETRA      6658       1    1041    1049    1103    1030
CTETRA      6659       1    1571     110    1572     111
CTETRA      6660       1     106     109     108     382
CTETRA      6661       1    1697    1700    1699     546
CTETRA      6662       1    2710    2711    2712    1199
CTETRA      6663       1    2126    2127    2502    1155
CTETRA      6664       1    2703    2712    1068    1199
CTETRA      6665       1    2703    2712    2704    1068
CTETRA      6666       1    3016    3690     406     397
CTETRA      6667       1    2137    2138    2141    1157
CTETRA      6668       1    2811    2813    2812     913
CTETRA      6669       1    2180    2181    2184    1199
CTETRA      6670       1    3054      17    1498      18
CTETRA      6671       1    2221    2224    2812     913
CTETRA      6672       1    2225     915     763     913
CTETRA      6673       1    1186     914     912     763
CTETRA      6674       1    2602    2687    1186     914
CTETRA      6675       1    2362     535    2363     472
CTETRA      6676       1    3790    1397    3791    2708
CTETRA      6677       1    3797    2670    2722    1205
CTETRA      6678       1    2602    2603    2688    1188
CTETRA      6679       1    1419    1420    1423     831
CTETRA      6680       1    2719    2724    2723     416
CTETRA      6681       1    1403    1404    1407    1022
CTETRA      6682       1    2779    2799    2798     415
CTETRA      6683       1    2701    2702     914     834
CTETRA      6684       1    1186    1188     914     763
CTETRA      6685       1    2603    2688    1188     915
CTETRA      6686       1    3798    1421    3799    2676
CTETRA      6687       1    3792    1403    3793    2720
CTETRA      6688       1    2219     834     525     913
CTETRA      6689       1    1819     998     996    1104
CTETRA      6690       1    1834     996    1513    1104
CTETRA      6691       1    1084    1085    1212    1104
CTETRA      6692       1    1833    1512    1107    1104
CTETRA      6693       1    3060      61    1234      62
CTETRA      6694       1    2187    2735    2190    1120
CTETRA      6695       1    3060    1505      61      62
CTETRA      6696       1    1235    1118     821      62
CTETRA      6697       1    2870    2875    2874    1103
CTETRA      6698       1    1235    1129    1118      62
CTETRA      6699       1    1763     898     389      62
CTETRA      6700       1    2703    2704    2735    1120
CTETRA      6701       1    2760    1066     623    1214
CTETRA      6702       1    1749    1764     822     712
CTETRA      6703       1    2760    2791    2761    1032
CTETRA      6704       1    1221    1216    1223    1059
CTETRA      6705       1    3056    3057    1496    1059
CTETRA      6706       1    3831    2193    2190    2734
CTETRA      6707       1    2195    2196    2199    1049
CTETRA      6708       1    2704    2732    2734    1120
CTETRA      6709       1    2876    2877    2880    1214
CTETRA      6710       1     774    1009    1059     775
CTETRA      6711       1    3786    1385    3787    2618
CTETRA      6712       1    2732    2738    2734    1049
CTETRA      6713       1     929    1026     830     828
CTETRA      6714       1    1347    1351     815    1028
CTETRA      6715       1    1719    1720    1722     413
CTETRA      6716       1    3199    1831    3200    1511
CTETRA      6717       1    3990    3255      45     313
CTETRA      6718       1    3136    1468    1061    1105
CTETRA      6719       1     385     370     379     192
CTETRA      6720       1    1374    1378    1377     405
CTETRA      6721       1    1468    1061    1105     878
CTETRA      6722       1     270     272     843     639
CTETRA      6723       1    3135    1488    1105     198
CTETRA      6724       1     274     137     198     193
CTETRA      6725       1    1488    1105     198     188
CTETRA      6726       1     333     334     157     166
CTETRA      6727       1    1370    1373    2743     404
CTETRA      6728       1    1122     759      41     948
CTETRA      6729       1    3769    3814    1382    2598
CTETRA      6730       1    1122     655     949     342
CTETRA      6731       1     949     655     656     652
CTETRA      6732       1    2774    2775    2798     922
CTETRA      6733       1    1768     950     949     656
CTETRA      6734       1      41     157     333     948
CTETRA      6735       1    1768     759     949     950
CTETRA      6736       1    3200    1511    1831    1515
CTETRA      6737       1    3067    1258    3068    1115
CTETRA      6738       1    2764    1130    1143    1203
CTETRA      6739       1    3462    3957    3956     637
CTETRA      6740       1    1910    1925    1924    1037
CTETRA      6741       1    1258    1039    1259    1115
CTETRA      6742       1    1130    1142    1143    1121
CTETRA      6743       1    3959    3960    2769    1142
CTETRA      6744       1     941    1039     205    1115
CTETRA      6745       1      27    1147     369     926
CTETRA      6746       1    3405    2233    2237     542
CTETRA      6747       1    1259    1039     995    1115
CTETRA      6748       1    3459    2287     241     430
CTETRA      6749       1    1837    1521    1115     206
CTETRA      6750       1    1907     761    1908     825
CTETRA      6751       1    2602    1186    2605    1188
CTETRA      6752       1    3405     489     541     484
CTETRA      6753       1    2687     734    1186     914
CTETRA      6754       1    2602     724    2606    1186
CTETRA      6755       1    2691     636    2702     923
CTETRA      6756       1    2787    2793    2788    1194
CTETRA      6757       1    2602    2687     724    1186
CTETRA      6758       1    1203    1053    1186     912
CTETRA      6759       1    3557    2317    2324     992
CTETRA      6760       1    2705    1041    1103    1066
CTETRA      6761       1    3851    3870    3557     992
CTETRA      6762       1    3558     990     992     991
CTETRA      6763       1    3870    3558     992     991
CTETRA      6764       1     826     606     607     611
CTETRA      6765       1    3101    1544     610     606
CTETRA      6766       1    2279    2281     607     606
CTETRA      6767       1    2200    2201    2204     650
CTETRA      6768       1    2763    2764    2771    1203
CTETRA      6769       1    2204    2208    2207     653
CTETRA      6770       1    1412    1416    1415    1205
CTETRA      6771       1    3101    3102    1546     606
CTETRA      6772       1    3911    2775    1420    2778
CTETRA      6773       1    1937     826     825     606
CTETRA      6774       1     609     610     768     611
CTETRA      6775       1    3909    3910    1417    2778
CTETRA      6776       1    3450    2281     609     607
CTETRA      6777       1     761     608     762     611
CTETRA      6778       1    2780    2800    2799     418
CTETRA      6779       1    3329    3999    3490     609
CTETRA      6780       1    1262     207    1266     208
CTETRA      6781       1    1826     208    1078     209
CTETRA      6782       1    2673    2730    2727     958
CTETRA      6783       1    1397    1398    1401     442
CTETRA      6784       1    1262    1213     207     209
CTETRA      6785       1    3078    3970    1524     208
CTETRA      6786       1    2214    2699     306     653
CTETRA      6787       1    1412    1413    1416     415
CTETRA      6788       1    1811     787    1078     208
CTETRA      6789       1    3797    1418    2670    1205
CTETRA      6790       1    1401    1405    1404    1094
CTETRA      6791       1    2221    2225    2224     913
CTETRA      6792       1    2834     403     220     218
CTETRA      6793       1    2834     220    2836     218
CTETRA      6794       1    2672    2727    2719    1193
CTETRA      6795       1    2766    2767    2773     658
CTETRA      6796       1    2805     306     731    1093
CTETRA      6797       1    2662     220    2665     218
CTETRA      6798       1    2684    2695    2694     619
CTETRA      6799       1    1050     220     697     840
CTETRA      6800       1    1420    2778    2775     415
CTETRA      6801       1    2764    2765    2772    1143
CTETRA      6802       1    2662     697     220     840
CTETRA      6803       1    2665     220     403     218
CTETRA      6804       1    3923    2221    2224    2812
CTETRA      6805       1    3922    3923    2224    2812
CTETRA      6806       1    2764    2772    2771     912
CTETRA      6807       1    2225    2226    2229     915
CTETRA      6808       1    3822    2220    2217    2696
CTETRA      6809       1    2689    2700    2701     525
CTETRA      6810       1     432     192     777     381
CTETRA      6811       1    2137    2140    2646     256
CTETRA      6812       1     548     109     396     393
CTETRA      6813       1    1020    1040    1017     108
CTETRA      6814       1    3138     548    1478     566
CTETRA      6815       1    3943    2148    2145    2858
CTETRA      6816       1    3947    3948    2160    2855
CTETRA      6817       1    3138    1564     548     566
CTETRA      6818       1    3137    1564    1061     548
CTETRA      6819       1    1748    1749    1764     823
CTETRA      6820       1    3951    3952    2172    2839
CTETRA      6821       1     145    1061    1025     275
CTETRA      6822       1    1564    1566    1025     566
CTETRA      6823       1    2821    2828    2822     635
CTETRA      6824       1    2661    2663    2664     532
CTETRA      6825       1    3093    1535     868     897
CTETRA      6826       1    1335    1338    1026     830
CTETRA      6827       1    2773    2774    2804     922
CTETRA      6828       1    3251     145    3252    1025
CTETRA      6829       1    2676    2693    2683    1043
CTETRA      6830       1    2499    2501    2500     573
CTETRA      6831       1    3772    2597    2599     405
CTETRA      6832       1    1565    1025     145    1061
CTETRA      6833       1    3252     145    1565    1025
CTETRA      6834       1    1878    1893     760     810
CTETRA      6835       1    2654    2655    2662     697
CTETRA      6836       1    3809    2659    2654     477
CTETRA      6837       1    2822    2823    2836     218
CTETRA      6838       1     683     697    1050     220
CTETRA      6839       1    2830     404    2835     928
CTETRA      6840       1    2821    2822    2838     635
CTETRA      6841       1    1437    1438    1439     395
CTETRA      6842       1    1865      88    1880      83
CTETRA      6843       1    2165    2169    2168     635
CTETRA      6844       1    2837    1050     622     635
CTETRA      6845       1     761     762    1038      34
CTETRA      6846       1    1150     810      83      33
CTETRA      6847       1    3943    3944    2148    2858
CTETRA      6848       1    3061    1235    1231     821
CTETRA      6849       1    1894     744    1909    1038
CTETRA      6850       1     768      32      33      34
CTETRA      6851       1    3115    1181     573     875
CTETRA      6852       1    3116    3696    3758     573
CTETRA      6853       1    2349    2353    2350     340
CTETRA      6854       1    3695    3696    1181     573
CTETRA      6855       1    3758    3696    2501     573
CTETRA      6856       1    1284    2501    2499     573
CTETRA      6857       1    2499     573    2500    1000
CTETRA      6858       1    1849     811    1528     612
CTETRA      6859       1    1850    1529      89     612
CTETRA      6860       1    2257    1149      89     612
CTETRA      6861       1    1149      89     612      84
CTETRA      6862       1    2639    2663    2662     840
CTETRA      6863       1    3944    3945    2151    2859
CTETRA      6864       1    1356    1357    1360     781
CTETRA      6865       1    3949    2163    2820    2828
CTETRA      6866       1    2773     658    2774     922
CTETRA      6867       1    2739    2740     400     658
CTETRA      6868       1    2621    2625    2622    1092
CTETRA      6869       1    2766    2773     801     658
CTETRA      6870       1    2774     922     658     831
CTETRA      6871       1    3895    1343    1346    2865
CTETRA      6872       1    1628     489     491     126
CTETRA      6873       1    3434     491     488    1124
CTETRA      6874       1    1346    1347    1350     814
CTETRA      6875       1     488     518    1124     921
CTETRA      6876       1    3193    3194    1750    1503
CTETRA      6877       1    2246    1124     518    1123
CTETRA      6878       1    3434     488    2246    1124
CTETRA      6879       1    1340    1343    2866    1027
CTETRA      6880       1    3898    2863    1336    1026
CTETRA      6881       1    2160     976    2855     839
CTETRA      6882       1     561     516     517     921
CTETRA      6883       1    2141    2144     256    1157
CTETRA      6884       1    2869    2870    2874    1029
CTETRA      6885       1    2625    2629    2628     813
CTETRA      6886       1    2342    2343    2403     460
CTETRA      6887       1     837     622     806     490
CTETRA      6888       1    2171     622    1050     635
CTETRA      6889       1    3193    1750    1749    1503
CTETRA      6890       1     344    1078     345    1070
CTETRA      6891       1    2960    3732    2961    1187
CTETRA      6892       1     685     279      57     490
CTETRA      6893       1    3078    1264    1262     209
CTETRA      6894       1    2888    1621    2889     348
CTETRA      6895       1    2962     345    2963    1127
CTETRA      6896       1     282     988     791    1036
CTETRA      6897       1    3403    2961    3732    1187
CTETRA      6898       1    3325    3404    3993    3434
CTETRA      6899       1    2756     622     836    1051
CTETRA      6900       1    3289    2963    2962     345
CTETRA      6901       1     655     347     652     343
CTETRA      6902       1    1865    1866      88      90
CTETRA      6903       1      88      83     612      84
CTETRA      6904       1    3402    3403    2081     261
CTETRA      6905       1    2256      82    2257     612
CTETRA      6906       1    3992    3403    2961    3732
CTETRA      6907       1    2536    2544    2542     543
CTETRA      6908       1    2256     811      82     612
CTETRA      6909       1    1864    1865      83     612
CTETRA      6910       1    2958     331    3729      40
CTETRA      6911       1    3271    1617     348    1077
CTETRA      6912       1    1850    1529    1525      89
CTETRA      6913       1    2959    2960    1255      39
CTETRA      6914       1    1865      88      83     612
CTETRA      6915       1    2893    3647    2894     643
CTETRA      6916       1    2230     632     728     542
CTETRA      6917       1    3956     722    2752     728
CTETRA      6918       1    3956     728    2753     632
CTETRA      6919       1    3406    3955    2233     632
CTETRA      6920       1    3406    3994    3919    3955
CTETRA      6921       1    3108    2273    2271     301
CTETRA      6922       1    3406    1627    3465     123
CTETRA      6923       1     637     541     632     633
CTETRA      6924       1    3956     637     722     632
CTETRA      6925       1    2740    2883    2884     400
CTETRA      6926       1    3955    2753    2233     632
CTETRA      6927       1    3463     637    3956     633
CTETRA      6928       1    2751     728    2776    1053
CTETRA      6929       1    3577    1901    3578      79
CTETRA      6930       1    2230     728    2231     542
CTETRA      6931       1    2230     728    2751    1053
CTETRA      6932       1    3406    3465    3994     633
CTETRA      6933       1    2265     300    2272     511
CTETRA      6934       1    3342    3468    3343    1625
CTETRA      6935       1    2231    1188    1186     763
CTETRA      6936       1    3920    2751    2230    2753
CTETRA      6937       1    3994    3465    3464     633
CTETRA      6938       1    3405    3406    2233     632
CTETRA      6939       1    3956     637    3957     722
CTETRA      6940       1    3406    3994    3955     633
CTETRA      6941       1     248    1056    1045     564
CTETRA      6942       1    1903    1904    1918     298
CTETRA      6943       1    3765    2606    2601     628
CTETRA      6944       1    2639    1108    2647     869
CTETRA      6945       1    1873    1160     561     890
CTETRA      6946       1    2161    2162    2165     869
CTETRA      6947       1    2230    2231    1053     763
CTETRA      6948       1    2287    1145    2288     299
CTETRA      6949       1    2763    2776     728    1203
CTETRA      6950       1    3459    3960    3460     430
CTETRA      6951       1    1933    1548    1549     299
CTETRA      6952       1    1919     502    1934     565
CTETRA      6953       1    3236    1934    1935    1550
CTETRA      6954       1    2742    2765    1143     801
CTETRA      6955       1    1834    1513    1512    1104
CTETRA      6956       1    3956     722     728     632
CTETRA      6957       1    3213    1853    1852    1536
CTETRA      6958       1    3286    2903    3287    1592
CTETRA      6959       1    1771     916     574      17
CTETRA      6960       1    2231     533    2234     542
CTETRA      6961       1    2763     728     722    1203
CTETRA      6962       1    1210     458     461     543
CTETRA      6963       1    1753    1754    1768     950
CTETRA      6964       1    1591    1592    1593     584
CTETRA      6965       1     462    1154    1153     460
CTETRA      6966       1    2403     460     458     461
CTETRA      6967       1    1085     127    1083    1082
CTETRA      6968       1    2903    2904    1220     578
CTETRA      6969       1      49     584     577     579
CTETRA      6970       1    2402    2403    2409     460
CTETRA      6971       1    1154    1153     460     461
CTETRA      6972       1     508     991     836      57
CTETRA      6973       1    3287    2902    2901     584
CTETRA      6974       1    1843    1532     890     518
CTETRA      6975       1    2261     631     563     560
CTETRA      6976       1    2896    3644    3643     160
CTETRA      6977       1     563     560     631    1056
CTETRA      6978       1     248    1045    1056     625
CTETRA      6979       1    3606    2357    2094    2359
CTETRA      6980       1    1045     560    1056     625
CTETRA      6981       1    1858    1859     890    1166
CTETRA      6982       1    1843     890    1532    1166
CTETRA      6983       1    3012    3013    1468     878
CTETRA      6984       1    3089     178    1537      90
CTETRA      6985       1     764     827     498     501
CTETRA      6986       1    1891     764     715     827
CTETRA      6987       1    1684     911     191     878
CTETRA      6988       1    3004    3363    3362    1683
CTETRA      6989       1    3003    3408    3995    3363
CTETRA      6990       1    1846     769    1861    1060
CTETRA      6991       1    3598    2431     423     987
CTETRA      6992       1    2591    2594    2593    1074
CTETRA      6993       1     907     696    1072     694
CTETRA      6994       1    1876     716     764     769
CTETRA      6995       1     769    1060     770     785
CTETRA      6996       1    3598     423     670     987
CTETRA      6997       1    3016    3689    3690     397
CTETRA      6998       1    2996    3601    2997     695
CTETRA      6999       1    2431     433     445     444
CTETRA      7000       1     841     769     770     785
CTETRA      7001       1     250     994     764     499
CTETRA      7002       1    1453    1020     382     387
CTETRA      7003       1    1891     250     994     764
CTETRA      7004       1    1783    1122     949     759
CTETRA      7005       1    3131    1452    3132    1020
CTETRA      7006       1    1540     896     895     897
CTETRA      7007       1    3689    2494    2495    1164
CTETRA      7008       1    3140    1562    1559    1002
CTETRA      7009       1    3162    1581    1580      55
CTETRA      7010       1    2639    2647    2649     869
CTETRA      7011       1     465    1208     161    1209
CTETRA      7012       1    3093     868     896     897
CTETRA      7013       1    3383    3507    1714     591
CTETRA      7014       1     755     759     575     163
CTETRA      7015       1    1712     589     181     614
CTETRA      7016       1    1784     755      41     759
CTETRA      7017       1    2158    2162    2161     869
CTETRA      7018       1    2600    1141     586    1195
CTETRA      7019       1    3255    3256    1574      76
CTETRA      7020       1     932     796     649     158
CTETRA      7021       1     904     950     796     649
CTETRA      7022       1    2656    1195     402     403
CTETRA      7023       1     644     948     964     334
CTETRA      7024       1    1783    1784      41     759
CTETRA      7025       1    1769     575     759     904
CTETRA      7026       1    1754     904    1769     950
CTETRA      7027       1     730     229    1183     178
CTETRA      7028       1    1377     405     587      37
CTETRA      7029       1    2771    2776    1203    1053
CTETRA      7030       1    3510    2301    2297     443
CTETRA      7031       1    2235    1188    2605     533
CTETRA      7032       1     538    1186     724     725
CTETRA      7033       1    3160    1582       5       1
CTETRA      7034       1     724    1186     734     725
CTETRA      7035       1    2764    2771    1203     912
CTETRA      7036       1    2023    2024    2039     679
CTETRA      7037       1    2772     912     801     923
CTETRA      7038       1    3871    1717    3872     989
CTETRA      7039       1    3562    3563    2339     408
CTETRA      7040       1    2687     724    1186     734
CTETRA      7041       1    3810    3811    2595    1140
CTETRA      7042       1    2836    2840    2838     683
CTETRA      7043       1     276     508     685      57
CTETRA      7044       1    3500    3811    3810    1140
CTETRA      7045       1     445     447     444     419
CTETRA      7046       1     445     444     426     419
CTETRA      7047       1    2494     974     426     419
CTETRA      7048       1    2590    1117    2592     419
CTETRA      7049       1    2592    1117    1185     419
CTETRA      7050       1    1185    1117     445     419
CTETRA      7051       1    2837    1050     837     622
CTETRA      7052       1    3800    1427    3801    2677
CTETRA      7053       1    3461    3957     637     951
CTETRA      7054       1    3959    1130     951     430
CTETRA      7055       1    3218    1847    1530    1531
CTETRA      7056       1    3308    3309    3448    1643
CTETRA      7057       1    1861     716    1876     769
CTETRA      7058       1    3085    3086    1531     856
CTETRA      7059       1    3958     951    3959    1130
CTETRA      7060       1    3447    1643    3448     766
CTETRA      7061       1    2152    2155    2650     976
CTETRA      7062       1    3438    3765     629     627
CTETRA      7063       1    2230    2231    2234     542
CTETRA      7064       1    1436     616    2612     620
CTETRA      7065       1     629     628     723    1121
CTETRA      7066       1    3460     951    3461    1145
CTETRA      7067       1     951     725     722     539
CTETRA      7068       1    1142     733    1121    1057
CTETRA      7069       1    3438    3765    3439     629
CTETRA      7070       1    3438    3766    3765     630
CTETRA      7071       1    3105    1207    1058     565
CTETRA      7072       1     346     348     259     343
CTETRA      7073       1     629     723     562    1057
CTETRA      7074       1    1154    1152    1153    1209
CTETRA      7075       1    2764    1130    2769    1143
CTETRA      7076       1    1847    1861     769    1067
CTETRA      7077       1    3978    3758    3116    3696
CTETRA      7078       1     467    1152     164    1209
CTETRA      7079       1     316     317     960     224
CTETRA      7080       1    3026    3365    1708    1106
CTETRA      7081       1    2989     317    1444     852
CTETRA      7082       1    1201     586     402      37
CTETRA      7083       1    2549    1211     467    1153
CTETRA      7084       1    1707    1708    1709     873
CTETRA      7085       1    1707    1708     873     216
CTETRA      7086       1    2742    2766    2765     801
CTETRA      7087       1    3727    2549    1211     467
CTETRA      7088       1    1470    1002     214     226
CTETRA      7089       1    3727    1211     332     467
CTETRA      7090       1    2986    3349    3348     318
CTETRA      7091       1    2011    2012    2027     101
CTETRA      7092       1    1968    1983    1982    1109
CTETRA      7093       1    2487     467    2490     961
CTETRA      7094       1    3726    3727     332     467
CTETRA      7095       1    1201     402    1195     403
CTETRA      7096       1     905     369    1147     926
CTETRA      7097       1    3692    2593    2594    1074
CTETRA      7098       1    3017    3691    3018     406
CTETRA      7099       1    3688    2494    3689    1164
CTETRA      7100       1    3114    1288    1287     694
CTETRA      7101       1      28     894     369    1147
CTETRA      7102       1    1623    1629     905    1189
CTETRA      7103       1    2997    3600    3599    1018
CTETRA      7104       1    3321    1173    1630    1147
CTETRA      7105       1     925    1147     881    1146
CTETRA      7106       1     907     696     695    1072
CTETRA      7107       1    1443    1098    1454    1048
CTETRA      7108       1    2993    3604    2994    1098
CTETRA      7109       1     452     448     450     118
CTETRA      7110       1    3016    3690    3017     406
CTETRA      7111       1    2997    3599    2998    1019
CTETRA      7112       1    2431    2432    2442     444
CTETRA      7113       1    2726    2727    2730     958
CTETRA      7114       1    3841    2146    2149     880
CTETRA      7115       1    1629    1147     925     926
CTETRA      7116       1    3816    2235    3817    2605
CTETRA      7117       1    3175    2320    2319    1006
CTETRA      7118       1    1630    1147    1173     892
CTETRA      7119       1    3265    1585    1573    1119
CTETRA      7120       1    3863    3535    3864    1729
CTETRA      7121       1    2647    2651    2650     976
CTETRA      7122       1    2819    2820    2855     839
CTETRA      7123       1     850     310     558     908
CTETRA      7124       1     881    1147     803    1146
CTETRA      7125       1    3525    2290    2294     519
CTETRA      7126       1      32     610    1037      34
CTETRA      7127       1     760     810    1038     762
CTETRA      7128       1     760     608     715     808
CTETRA      7129       1    3490    2280     768     610
CTETRA      7130       1    3156    2308    2306     323
CTETRA      7131       1    3031    1704    3369     981
CTETRA      7132       1    3535    3536    2335     515
CTETRA      7133       1    3330    3490    3489     768
CTETRA      7134       1    3488    1639     768      33
CTETRA      7135       1    3411      82     809     762
CTETRA      7136       1    1335    1339    1338     830
CTETRA      7137       1      75     918     292     294
CTETRA      7138       1    3330    3488    1639     768
CTETRA      7139       1    3865    3534    3533     963
CTETRA      7140       1    1665    1666    1668     753
CTETRA      7141       1    3339     802    3474     799
CTETRA      7142       1     805     891     803     376
CTETRA      7143       1    1853      93    1868     177
CTETRA      7144       1    2297     443     280     614
CTETRA      7145       1    3871    1716    1717     989
CTETRA      7146       1    3339    1630    1631     802
CTETRA      7147       1    3507    1714     591     283
CTETRA      7148       1    3512    3513    2300    1179
CTETRA      7149       1    3152    2295    3153     568
CTETRA      7150       1    3556    2324    2325     590
CTETRA      7151       1     881     800     799     798
CTETRA      7152       1     802     798     799     795
CTETRA      7153       1    2171     806     622     531
CTETRA      7154       1    3096     882    3097     605
CTETRA      7155       1     557     554     882     794
CTETRA      7156       1     816     708     794     795
CTETRA      7157       1    3096    2266     882     603
CTETRA      7158       1    2266     793     882     603
CTETRA      7159       1    3166    1663    1673     971
CTETRA      7160       1    3506    2298    2291     283
CTETRA      7161       1    3404    2236    3768     484
CTETRA      7162       1     891    1113     892     818
CTETRA      7163       1    3055    1226    1220      51
CTETRA      7164       1    1113     896     868     897
CTETRA      7165       1    1870     894    1113     897
CTETRA      7166       1    1759    1774    1773     774
CTETRA      7167       1    1173     896    1192    1204
CTETRA      7168       1    2862     930    2867    1027
CTETRA      7169       1    1870      28    1885    1113
CTETRA      7170       1      28    1113     894    1204
CTETRA      7171       1    2904    1222    1220     578
CTETRA      7172       1    1739    1754     950     797
CTETRA      7173       1    1113     868    1042     897
CTETRA      7174       1    1841    1856     516     517
CTETRA      7175       1    3080    2246     518    1123
CTETRA      7176       1    3052    3053    1502     935
CTETRA      7177       1    3080     518    1533    1123
CTETRA      7178       1    1843     517    1533     518
CTETRA      7179       1    2893    2894    1228     932
CTETRA      7180       1    1843    1858    1857     890
CTETRA      7181       1    1749    1503     822     823
CTETRA      7182       1    2917    1235    1234    1129
CTETRA      7183       1    1843    1857     517     890
CTETRA      7184       1    2919    1611    2920     739
CTETRA      7185       1    2916    2917    1234    1129
CTETRA      7186       1     516    1124     517     921
CTETRA      7187       1    1403    1407    1406     417
CTETRA      7188       1    1857    1872    1871     517
CTETRA      7189       1    1841     517     516    1123
CTETRA      7190       1    1890    1891    1905     250
CTETRA      7191       1    3285    2904    1589     129
CTETRA      7192       1     916      49     584     757
CTETRA      7193       1     561     517     890     921
CTETRA      7194       1    1907    1922     826     825
CTETRA      7195       1    1771    1772     574     916
CTETRA      7196       1    1862    1863    1877     716
CTETRA      7197       1    1856    1857    1871     517
CTETRA      7198       1     553     816     784     817
CTETRA      7199       1     228     229     784     817
CTETRA      7200       1    2944    2945    1247    1212
CTETRA      7201       1    3304    2945    1596    1083
CTETRA      7202       1     730      88    1183     743
CTETRA      7203       1    2803    1193    1156     958
CTETRA      7204       1    3417    3418    1183     740
CTETRA      7205       1    3416    1183     886     740
CTETRA      7206       1    3285    1595    2906     129
CTETRA      7207       1    2945    2946    1248    1085
CTETRA      7208       1    3304    2946    2945    1083
CTETRA      7209       1    1183      88     886     740
CTETRA      7210       1    3082    1054    1534    1166
CTETRA      7211       1    1636     704     740     745
CTETRA      7212       1    3075    1253     599     336
CTETRA      7213       1    3334    3483    3482     704
CTETRA      7214       1    1262    1264    1213     209
CTETRA      7215       1    3076    1255    1244     819
CTETRA      7216       1     245     242     246     244
CTETRA      7217       1    1634    1635     784     740
CTETRA      7218       1    1634     784     229     740
CTETRA      7219       1    3196    1827    1828    1517
CTETRA      7220       1    2727    1193    1093     958
CTETRA      7221       1    3766    3767    2606     538
CTETRA      7222       1    3082    2261    1054     560
CTETRA      7223       1    2672    2727    1193    1093
CTETRA      7224       1    1070    1128    1071     819
CTETRA      7225       1    2728    2730     651    1194
CTETRA      7226       1    1846    1847     769     771
CTETRA      7227       1    2787    2803    1156     958
CTETRA      7228       1    2726    1156    2727     958
CTETRA      7229       1    2802     307     306     958
CTETRA      7230       1    1844    1859    1858    1166
CTETRA      7231       1    1813    1828    1070    1071
CTETRA      7232       1    2789     179     307     650
CTETRA      7233       1    2674    2730     306     307
CTETRA      7234       1    3335     704    3481     784
CTETRA      7235       1    2798    1144     922     415
CTETRA      7236       1    3335    1635     704     784
CTETRA      7237       1    3419     229    1183     740
CTETRA      7238       1    1633     557     793     376
CTETRA      7239       1    3992    2961    3403    2962
CTETRA      7240       1    1616    1618    1617    1076
CTETRA      7241       1    3480    3481     556     784
CTETRA      7242       1    1078     208     207     209
CTETRA      7243       1    3594     787    1811     208
CTETRA      7244       1    3970    1262    1266     208
CTETRA      7245       1    3594    3986    1523    1524
CTETRA      7246       1    3336    3480     557     784
CTETRA      7247       1    3289    3992    3403    2962
CTETRA      7248       1    3336     557    1633     784
CTETRA      7249       1    3480     556     557     784
CTETRA      7250       1    2246    2247    1124    1123
CTETRA      7251       1    3588    1507    1736     729
CTETRA      7252       1    3594    1523     572     208
CTETRA      7253       1     516    1125     895    1123
CTETRA      7254       1    2989    2990    1450     851
CTETRA      7255       1     984    1116     982    1073
CTETRA      7256       1     446    1114    1117    1073
CTETRA      7257       1    3433    2247     893    1124
CTETRA      7258       1     893     126     905     944
CTETRA      7259       1    2433    2437    2434     985
CTETRA      7260       1    3695     573    1165    1000
CTETRA      7261       1    3115     573    1284    1001
CTETRA      7262       1    1201     687     404     403
CTETRA      7263       1     516     517    1124    1123
CTETRA      7264       1    2991    1063    1047     851
CTETRA      7265       1    1845    1054     770    1060
CTETRA      7266       1    1285    1287    1288    1001
CTETRA      7267       1    1165     573    1181     875
CTETRA      7268       1    2493    2590     419     422
CTETRA      7269       1    3651    2356    1297    1100
CTETRA      7270       1    3079    1539    3971     895
CTETRA      7271       1    2486    2490    2487     467
CTETRA      7272       1    1772     581    1773     579
CTETRA      7273       1     756     162     659     660
CTETRA      7274       1    3726    2490    2486     467
CTETRA      7275       1    1507     729     617     512
CTETRA      7276       1    1421    1167    1425    1043
CTETRA      7277       1    3049    1494    1507     512
CTETRA      7278       1    1308    1311    1310     187
CTETRA      7279       1    1319    1320     105      69
CTETRA      7280       1    2586    2587    2594    1116
CTETRA      7281       1    2552    2563    2562     676
CTETRA      7282       1    3969     617    1507     729
CTETRA      7283       1    2625     813     930     952
CTETRA      7284       1     354     355     353     617
CTETRA      7285       1     354     355     617     512
CTETRA      7286       1    3676    1311    2422    2426
CTETRA      7287       1    1236     353     617     729
CTETRA      7288       1    2798    2799    2801    1144
CTETRA      7289       1    2422    2484    2476      65
CTETRA      7290       1    1237    1238     355     617
CTETRA      7291       1    2420    2477    2474     721
CTETRA      7292       1    3969    1236     617     729
CTETRA      7293       1    3747    1306    3748    2554
CTETRA      7294       1    3603    2351     936     694
CTETRA      7295       1    3089    3090    1537     178
CTETRA      7296       1    1866    1867     730      90
CTETRA      7297       1    3088    3089    1525      89
CTETRA      7298       1      88    1135     886      89
CTETRA      7299       1    3659    1325    1323    2398
CTETRA      7300       1    2786    1094    1065    1022
CTETRA      7301       1    2241    2242    1183    1135
CTETRA      7302       1    2367    2390    2383      80
CTETRA      7303       1    2238     886    2242    1135
CTETRA      7304       1    1944     708     604     605
CTETRA      7305       1    1928     708    1944     605
CTETRA      7306       1    1551     798     604     482
CTETRA      7307       1    3095     603    1551     798
CTETRA      7308       1     379     192     130     383
CTETRA      7309       1    3737    1301    1324    2540
CTETRA      7310       1    3148    1570     452     448
CTETRA      7311       1    3242     448      15     450
CTETRA      7312       1    3241      19      15     448
CTETRA      7313       1    3241    1570    1567    1016
CTETRA      7314       1    3240    3241    1567    1016
CTETRA      7315       1    3663    3664    1332    2393
CTETRA      7316       1    3241    1016      19     448
CTETRA      7317       1     150     449     117      13
CTETRA      7318       1      19     448    1016     133
CTETRA      7319       1    2518    2519    2528    1102
CTETRA      7320       1    2843    2862    2865     813
CTETRA      7321       1     148     115      94     150
CTETRA      7322       1     148      94     883     150
CTETRA      7323       1     837     806    1050     697
CTETRA      7324       1    2620    2621    2643     812
CTETRA      7325       1    2838     220    1050     840
CTETRA      7326       1    2662    2663     697     840
CTETRA      7327       1    3781    1348    3782    2635
CTETRA      7328       1    2653     806     686     697
CTETRA      7329       1     930     813    1028    1027
CTETRA      7330       1    3897    1337    1340    2867
CTETRA      7331       1     837     686     806     697
CTETRA      7332       1    1355    2826    2827     782
CTETRA      7333       1    3781    1351    1348    2635
CTETRA      7334       1    2843    2844    2862     813
CTETRA      7335       1    2663     806     697     840
CTETRA      7336       1    2348    2437     984     985
CTETRA      7337       1    2348     984    2349     985
CTETRA      7338       1    2433     985    2449    1114
CTETRA      7339       1    1347    1348    1351    1028
CTETRA      7340       1    3500    3501    2313       2
CTETRA      7341       1    2435    2449     985     338
CTETRA      7342       1     695     407     559    1072
CTETRA      7343       1    1371    1372    1375     928
CTETRA      7344       1    3772    1375    3773    2597
CTETRA      7345       1     984     982     985    1073
CTETRA      7346       1    1362    1366    1365    1004
CTETRA      7347       1    2433     446     985    1114
CTETRA      7348       1     408     844     710     640
CTETRA      7349       1     696     984    1116     340
CTETRA      7350       1     984     982    1116     340
CTETRA      7351       1    3773    2597    1375    2658
CTETRA      7352       1     984     985     446    1073
CTETRA      7353       1    3165    1673     172     590
CTETRA      7354       1    3695    2500     573    1000
CTETRA      7355       1    3895    3896    1343    2866
CTETRA      7356       1    2588    1000    1116     986
CTETRA      7357       1    1282     339    1289     340
CTETRA      7358       1    2349     985     984     340
CTETRA      7359       1    1409    1412    2723     416
CTETRA      7360       1    2579     982    2591    1114
CTETRA      7361       1    1412     415    1205     416
CTETRA      7362       1    2581     338     672     341
CTETRA      7363       1    3453    3454    2284     527
CTETRA      7364       1    2579     982     338     339
CTETRA      7365       1     801     636     658     923
CTETRA      7366       1    2772     801    2773     923
CTETRA      7367       1    3787    1385    1388    2618
CTETRA      7368       1     733     801     734     636
CTETRA      7369       1    2740    2766     400     658
CTETRA      7370       1    2717    1156    1065    1022
CTETRA      7371       1    2773     801     658     923
CTETRA      7372       1    1394    1395    1398     442
CTETRA      7373       1     804     400     801     732
CTETRA      7374       1    2783    2791    2786    1065
CTETRA      7375       1    2568    2575    2574     720
CTETRA      7376       1    2616     929    2713    1214
CTETRA      7377       1    1392    1099    1034     624
CTETRA      7378       1    2420     720    2477     721
CTETRA      7379       1    2761    2785    2762    1099
CTETRA      7380       1    2567     470    2572     681
CTETRA      7381       1    2779     418    2799     415
CTETRA      7382       1    2432     446    2433     447
CTETRA      7383       1    1411    2780    1414     418
CTETRA      7384       1    1410     417     418     416
CTETRA      7385       1    1422    1423    1426     831
CTETRA      7386       1    2433    2449     447    1114
CTETRA      7387       1     445    1117     447     419
CTETRA      7388       1    2284     528     527     495
CTETRA      7389       1    2590     447    1117     419
CTETRA      7390       1    2590    1117     447    1114
CTETRA      7391       1    2440     444     447     420
CTETRA      7392       1    2671    2672    2719    1144
CTETRA      7393       1    3327    3451    1644     190
CTETRA      7394       1    1412    1205    2722     416
CTETRA      7395       1    3598     670     401     987
CTETRA      7396       1    3408     777     671     424
CTETRA      7397       1    2999     401     670     382
CTETRA      7398       1    1418    1167    2670    1205
CTETRA      7399       1    3439    3440    2261     631
CTETRA      7400       1    3001    3002     385     671
CTETRA      7401       1    1876    1877    1891     715
CTETRA      7402       1    2601    2687     723     724
CTETRA      7403       1    3439    3764    3763     562
CTETRA      7404       1    3596     670     423     424
CTETRA      7405       1    3001    3596     671     670
CTETRA      7406       1    1891    1905     250     498
CTETRA      7407       1    3229    1941    1942    1553
CTETRA      7408       1    3595     671    3596     424
CTETRA      7409       1    1201     402     404      37
CTETRA      7410       1     210     572     571     788
CTETRA      7411       1    3065    1519     571     773
CTETRA      7412       1    3308    3448    3447    1643
CTETRA      7413       1    1265     572     641     571
CTETRA      7414       1    3065    1267     772     571
CTETRA      7415       1    1847    1530    1531    1067
CTETRA      7416       1    3064     572    1265     571
CTETRA      7417       1     344     345    1078    1075
CTETRA      7418       1    1827    1517    1510     819
CTETRA      7419       1    1906     826     498     827
CTETRA      7420       1    1826    1078    1070     209
CTETRA      7421       1    3128    1450    1449     317
CTETRA      7422       1    2989    1450    1444     317
CTETRA      7423       1    1811    1812    1826    1078
CTETRA      7424       1    1812    1826    1078    1070
CTETRA      7425       1    3734    1295    3735    2488
CTETRA      7426       1    1944    1945    1551     604
CTETRA      7427       1    1699    1702    1701     887
CTETRA      7428       1    3025    3026    1476    1106
CTETRA      7429       1    3021    3022    1469     874
CTETRA      7430       1    3030    3368    3031     978
CTETRA      7431       1    3348    1705    1706     318
CTETRA      7432       1    1812    1813    1070    1071
CTETRA      7433       1    1797    1812    1078    1070
CTETRA      7434       1    1797    1078     344    1070
CTETRA      7435       1    3026    3027    1470     214
CTETRA      7436       1    3097     882     713     605
CTETRA      7437       1     555    1191     713    1055
CTETRA      7438       1    1945    1551     604     482
CTETRA      7439       1    3243     510    1568     450
CTETRA      7440       1    1482    1484     510    1132
CTETRA      7441       1    3481     704    2267     556
CTETRA      7442       1    3123    1458     884      98
CTETRA      7443       1    3481     704     556     784
CTETRA      7444       1    3097     882    2269     713
CTETRA      7445       1    2267    2269     556     713
CTETRA      7446       1    3097    3098    1553     713
CTETRA      7447       1    3105     565    1058     299
CTETRA      7448       1    1555     373     993     482
CTETRA      7449       1    1903    1918    1917     298
CTETRA      7450       1    1215     124     125     301
CTETRA      7451       1    1932     511     125     299
CTETRA      7452       1     123     125     124     511
CTETRA      7453       1    3094     798    1551     482
CTETRA      7454       1    2972    2973    1455     100
CTETRA      7455       1    2265    2288     638     511
CTETRA      7456       1    1945    1555    1551     482
CTETRA      7457       1    3040     507    1170     237
CTETRA      7458       1    2272     511     124     301
CTETRA      7459       1    2673    2680    2674     306
CTETRA      7460       1    2973    2974    1459     100
CTETRA      7461       1    1694     237    1696     239
CTETRA      7462       1    3094    1555     993     482
CTETRA      7463       1    3107     511    2272     301
CTETRA      7464       1    1482     510    1483    1132
CTETRA      7465       1    3106    2265    3107     511
CTETRA      7466       1    1208    1196     961    1209
CTETRA      7467       1    1296     287     961    1010
CTETRA      7468       1    2354    2356    2355     287
CTETRA      7469       1    3643     939     160    1208
CTETRA      7470       1    2400     939    1208     287
CTETRA      7471       1    3039    3040    1484     507
CTETRA      7472       1    3040    3374    3041     237
CTETRA      7473       1    3644     465    2401    1208
CTETRA      7474       1    3643    2400     939    1208
CTETRA      7475       1    3905    2782    1405    1094
CTETRA      7476       1    3038    3039    1484    1132
CTETRA      7477       1    3121    1466    1455      96
CTETRA      7478       1    1183      88     740     743
CTETRA      7479       1    3857    3548    3547     438
CTETRA      7480       1    1881      88     730     743
CTETRA      7481       1    1663     747     710     844
CTETRA      7482       1     406     393     396     394
CTETRA      7483       1    2973    1459    1455     100
CTETRA      7484       1    1895    1150    1896     742
CTETRA      7485       1    1894    1150     744     810
CTETRA      7486       1    3242    1568    1570     450
CTETRA      7487       1     977     619     400     732
CTETRA      7488       1    1143     733     804     801
CTETRA      7489       1    2686     733    2690     734
CTETRA      7490       1    3763     723    2690     733
CTETRA      7491       1    3983    2301    2300    1184
CTETRA      7492       1     747     710     844     748
CTETRA      7493       1    2686    2692     733     734
CTETRA      7494       1    2338    2339     408     844
CTETRA      7495       1    1688     903     112     901
CTETRA      7496       1    1142     804     733     202
CTETRA      7497       1    3763    1163     562     733
CTETRA      7498       1    2717    1065     442    1022
CTETRA      7499       1    1084    1081     127    1082
CTETRA      7500       1    3173    3174    1670     257
CTETRA      7501       1    1668     846    1669     252
CTETRA      7502       1    3192    3193    1749    1506
CTETRA      7503       1    3053    1495    1502     935
CTETRA      7504       1    1668     753     846     252
CTETRA      7505       1     933     465     160     934
CTETRA      7506       1    3075    1126    1516    1024
CTETRA      7507       1     796     157     649     158
CTETRA      7508       1    1254      39    1255    1126
CTETRA      7509       1    1769    1770     575     904
CTETRA      7510       1    1741    1756    1755     576
CTETRA      7511       1    3051    1500    1501     654
CTETRA      7512       1    1754    1755    1769     904
CTETRA      7513       1    2717    2726    2725    1065
CTETRA      7514       1    1740    1755    1754     935
CTETRA      7515       1    3184    1495    1740    1502
CTETRA      7516       1     596    1126     336    1024
CTETRA      7517       1    1836    1837    1521    1115
CTETRA      7518       1    2937    2938    1259    1039
CTETRA      7519       1    3204    1835    1509    1513
CTETRA      7520       1    1866    1881    1880      88
CTETRA      7521       1    3075     336    1126    1024
CTETRA      7522       1    1820    1200     995     996
CTETRA      7523       1    3070    1247    3071    1104
CTETRA      7524       1    2707    2715    2708     442
CTETRA      7525       1    1913    1928     554     708
CTETRA      7526       1    1215      48      79     926
CTETRA      7527       1     925    1146      48     926
CTETRA      7528       1    2275      48     925     993
CTETRA      7529       1    3468    3469      48     926
CTETRA      7530       1    3213    1536    1852    1537
CTETRA      7531       1    1215      79      48     373
CTETRA      7532       1    3094    1555    3972     993
CTETRA      7533       1     925     993      48    1146
CTETRA      7534       1    2362    2456    2459     472
CTETRA      7535       1    2275      48     993     373
CTETRA      7536       1    3471    2275     925     993
CTETRA      7537       1    3471     925     881     993
CTETRA      7538       1      48    1146      79     926
CTETRA      7539       1    3578     373    3579     482
CTETRA      7540       1    1930     800      79     482
CTETRA      7541       1     943      79     800    1146
CTETRA      7542       1    3086     856    2255     811
CTETRA      7543       1    3219    1845    3220    1527
CTETRA      7544       1    3063     736    1508     712
CTETRA      7545       1    3209    1519    1840    1523
CTETRA      7546       1     866     197     646     863
CTETRA      7547       1    1508     736     729     712
CTETRA      7548       1    3218    1846    3219    1530
CTETRA      7549       1    3969     736    1240     729
CTETRA      7550       1    3063     822    1241     736
CTETRA      7551       1    3091    1538    1536      93
CTETRA      7552       1    3091    2243     176     177
CTETRA      7553       1    3061    1504      62     823
CTETRA      7554       1    1869    1870    1885    1113
CTETRA      7555       1    2925     197     866     736
CTETRA      7556       1     204     646     737     788
CTETRA      7557       1    2925     866    1240     736
CTETRA      7558       1    2925    1240    1239     736
CTETRA      7559       1    1885    1900     891      28
CTETRA      7560       1     728     542     632     539
CTETRA      7561       1    3426    1173    2248    1192
CTETRA      7562       1    1898    1899    1914     816
CTETRA      7563       1    1910    1911    1925     746
CTETRA      7564       1    2236     542     533     484
CTETRA      7565       1    1160     247     245     726
CTETRA      7566       1    3323    1626    3431     905
CTETRA      7567       1    3108    2271    3972     373
CTETRA      7568       1     486     518     488     625
CTETRA      7569       1    3437     630    3438     486
CTETRA      7570       1    3438     629    3439     631
CTETRA      7571       1     246     726     924     727
CTETRA      7572       1     601     597     600     165
CTETRA      7573       1     664     659     597     661
CTETRA      7574       1    3988    1931    3239    1556
CTETRA      7575       1    1245     664    1256     665
CTETRA      7576       1     659     666     663     661
CTETRA      7577       1    3578    1930      79     482
CTETRA      7578       1      48      79     993     373
CTETRA      7579       1    1740    1755     935     576
CTETRA      7580       1    1398    1401     442    1094
CTETRA      7581       1    3107    1542    1549     301
CTETRA      7582       1    3577      27    1901      79
CTETRA      7583       1    3094    3972    2274     993
CTETRA      7584       1    1740     935    1495      18
CTETRA      7585       1    1219     756     583      18
CTETRA      7586       1    1771      17     574     576
CTETRA      7587       1    1756      17    1771     576
CTETRA      7588       1    2395     848    2398     842
CTETRA      7589       1     904     935     576     758
CTETRA      7590       1    1770     575     904     576
CTETRA      7591       1    1484    1485     452     507
CTETRA      7592       1    3169    2338    2341     711
CTETRA      7593       1      12     388     139      14
CTETRA      7594       1    1705    1095    1706     318
CTETRA      7595       1    1981    1109    1982     102
CTETRA      7596       1    2488    2545    2546    1162
CTETRA      7597       1    2338     408     270     711
CTETRA      7598       1    3247    1563    1560     917
CTETRA      7599       1    3132    1020    1453     387
CTETRA      7600       1    3156    1576    1577     323
CTETRA      7601       1     959     272     290     639
CTETRA      7602       1    3029    3368    3030     978
CTETRA      7603       1     669     585     662     661
CTETRA      7604       1    3865    1725     963     705
CTETRA      7605       1    3865    3533    3532     963
CTETRA      7606       1    3269     434    1583    1138
CTETRA      7607       1     312     441    1138     303
CTETRA      7608       1    3155    2309    2308     321
CTETRA      7609       1    1914     800    1930     604
CTETRA      7610       1    3155    1577    1573     321
CTETRA      7611       1    3267    3268    1180     454
CTETRA      7612       1    1668    1669    1675     754
CTETRA      7613       1    1915     805     943     800
CTETRA      7614       1     708     604     603     795
CTETRA      7615       1    1899     891     805     816
CTETRA      7616       1    3863    3537    3536     515
CTETRA      7617       1     708     603     794     795
CTETRA      7618       1     891     803     376     818
CTETRA      7619       1     805     816     891     376
CTETRA      7620       1    3485     885    2264     973
CTETRA      7621       1    2906    2907    1221    1216
CTETRA      7622       1    1760    1013    1008    1014
CTETRA      7623       1    1389     829    1099     624
CTETRA      7624       1    2862    2879     930     813
CTETRA      7625       1    1747    1748    1762      62
CTETRA      7626       1    2093    2493    2494     426
CTETRA      7627       1    1353    1357    1356     781
CTETRA      7628       1    2620    2629     812     815
CTETRA      7629       1    1078     345    1127    1075
CTETRA      7630       1    2621     813    2625    1092
CTETRA      7631       1    2625    2628     930     813
CTETRA      7632       1    3590    1751     861     862
CTETRA      7633       1    2628     813    2629    1028
CTETRA      7634       1    2929    1268    1267     204
CTETRA      7635       1    2879     930     813     952
CTETRA      7636       1    1347    1028     815    1027
CTETRA      7637       1    2574     187     720     680
CTETRA      7638       1    3218    1847    1846    1530
CTETRA      7639       1    2357    2358    2441     423
CTETRA      7640       1    3333    1637    3485     745
CTETRA      7641       1    1911    1926    1925     746
CTETRA      7642       1    3333    1636    1637     745
CTETRA      7643       1    3332    3485    1637     885
CTETRA      7644       1    2567     386     470     721
CTETRA      7645       1    2474     681     470     721
CTETRA      7646       1    2572     470    1182     681
CTETRA      7647       1    2121     386    2122     470
CTETRA      7648       1     455     779     593     305
CTETRA      7649       1    2566    1182    2572     470
CTETRA      7650       1    2567     386    2584     470
CTETRA      7651       1    3702    2566    2584     470
CTETRA      7652       1    2123    1182    2124     470
CTETRA      7653       1    3702    2121    2124     470
CTETRA      7654       1    3267    2063     454     463
CTETRA      7655       1    3043    1492    1481    1088
CTETRA      7656       1    2046     463    1134     931
CTETRA      7657       1    3989    3240      19      68
CTETRA      7658       1    3267     463     454     779
CTETRA      7659       1    1655    1656    1659     115
CTETRA      7660       1    1428    1432    1431     634
CTETRA      7661       1     312    1180     454     779
CTETRA      7662       1     595     593     455     464
CTETRA      7663       1    2093    2094    2096     433
CTETRA      7664       1     546     234     232     233
CTETRA      7665       1    2040     103     679     101
CTETRA      7666       1    1655    1657    1656     379
CTETRA      7667       1    1689    1692    1691      99
CTETRA      7668       1    3045    1492     453     451
CTETRA      7669       1    1481     452     371    1088
CTETRA      7670       1    3121    3122    1661      96
CTETRA      7671       1    2046     463    2061    1134
CTETRA      7672       1     894     896    1190    1204
CTETRA      7673       1    2342     466     357     460
CTETRA      7674       1    3165    1673    3984     172
CTETRA      7675       1    1630     803     881    1147
CTETRA      7676       1    3041    3374    3375    1694
CTETRA      7677       1    3321    1629    3428    1147
CTETRA      7678       1    3321    3426    1630    1173
CTETRA      7679       1     312    1138    1180     303
CTETRA      7680       1    1901    1215      27     889
CTETRA      7681       1    1886    1901      27     889
CTETRA      7682       1    3864    1729    3535     513
CTETRA      7683       1    3156    3157    1576     323
CTETRA      7684       1    2981    3352    1701     547
CTETRA      7685       1    2545     962    1162     983
CTETRA      7686       1      27     369    1215     926
CTETRA      7687       1      27      79     943    1146
CTETRA      7688       1    3952    3953    2175    2755
CTETRA      7689       1    1871    1886      27     369
CTETRA      7690       1    3559    2340    2317     509
CTETRA      7691       1    3870    1716    3871     989
CTETRA      7692       1    2662     840     220     218
CTETRA      7693       1     310     366     504     908
CTETRA      7694       1    3494    2310    2311     365
CTETRA      7695       1    3855    3549    3856     497
CTETRA      7696       1    3575      27      28     369
CTETRA      7697       1    3545    2318    2322     968
CTETRA      7698       1    3577     943      27      79
CTETRA      7699       1    3150    3983    2300    1184
CTETRA      7700       1    3083    1527    1054     770
CTETRA      7701       1    3082    3083    1534    1054
CTETRA      7702       1    2263    1054     428     770
CTETRA      7703       1    3386    1726    3387    1179
CTETRA      7704       1    1713    1714    1716     613
CTETRA      7705       1    1227     156    1230     935
CTETRA      7706       1    2282    2283      32    1178
CTETRA      7707       1    1518    1198     336    1024
CTETRA      7708       1    3387    1728    3388     435
CTETRA      7709       1    1295    1296    1299     287
CTETRA      7710       1    3074    1256     336     665
CTETRA      7711       1     596    1198     336     597
CTETRA      7712       1    1256     601     335     336
CTETRA      7713       1     599     336     596    1126
CTETRA      7714       1    3267    1180    3268    1138
CTETRA      7715       1    3394     906    1729     514
CTETRA      7716       1    3075     599    1254    1126
CTETRA      7717       1    3041     371    1485     237
CTETRA      7718       1    1693     238     236     239
CTETRA      7719       1    3861    3539    3862    1733
CTETRA      7720       1    3038    3373    3039    1132
CTETRA      7721       1    3373    1698    1696    1170
CTETRA      7722       1    3266    1584    1585    1177
CTETRA      7723       1    1740    1502     935     797
CTETRA      7724       1    2895    2896    1227     156
CTETRA      7725       1    2896    1230    1227     156
CTETRA      7726       1    1748    1763    1762      62
CTETRA      7727       1    1122      41     333     948
CTETRA      7728       1    3183    1739    1738    1500
CTETRA      7729       1    3039    1484    1132     507
CTETRA      7730       1     453     451     236     116
CTETRA      7731       1    1601     997      91      22
CTETRA      7732       1     452     507     237     118
CTETRA      7733       1    1833    1834    1512    1104
CTETRA      7734       1    2946    2947    1248    1085
CTETRA      7735       1    2945    1248    1247    1085
CTETRA      7736       1    1170     237     507     235
CTETRA      7737       1    2909      91    1009      92
CTETRA      7738       1    1789    1804    1803    1081
CTETRA      7739       1    1767    1768    1782     655
CTETRA      7740       1    1694     236     371     237
CTETRA      7741       1     883     117     240     154
CTETRA      7742       1    3059    3060    1505      61
CTETRA      7743       1    1747      61    1505      62
CTETRA      7744       1    1129      61     389      62
CTETRA      7745       1    3059    1493    1015    1014
CTETRA      7746       1    1118     898     821      62
CTETRA      7747       1    2934    1610    2935     390
CTETRA      7748       1    1793    1809    1808     199
CTETRA      7749       1    1013     389      24      61
CTETRA      7750       1    2915    1232      21      61
CTETRA      7751       1    3246    1953    3247     523
CTETRA      7752       1    1071    1128    1126     819
CTETRA      7753       1    3075    1254    3076    1126
CTETRA      7754       1      41     596    1071     333
CTETRA      7755       1    3059    1233      21    1015
CTETRA      7756       1    3076    1517    1516     819
CTETRA      7757       1    3076    1244    3077     819
CTETRA      7758       1    3059    1233    1232      21
CTETRA      7759       1    3059    1232    3060      61
CTETRA      7760       1    3986    3209    1840    1523
CTETRA      7761       1    2240     176     702     865
CTETRA      7762       1    3090     178    2243     177
CTETRA      7763       1    1954    1969    1968     469
CTETRA      7764       1    3090    2243    3091     177
CTETRA      7765       1    2921    2922    1242      85
CTETRA      7766       1    2402    2409    1154     460
CTETRA      7767       1    3593    1796    1811     787
CTETRA      7768       1    3289    1620    1619    1075
CTETRA      7769       1    1996    1997    2011     102
CTETRA      7770       1    2925    1615     866     646
CTETRA      7771       1    3593    1825    1810     787
CTETRA      7772       1    3091     865    1538      93
CTETRA      7773       1     175     176    1042     818
CTETRA      7774       1    3318    1633    1632     703
CTETRA      7775       1    2887     348     353    1077
CTETRA      7776       1     346     652     654     347
CTETRA      7777       1    2766    2773    2772     801
CTETRA      7778       1    3091     176    2240     865
CTETRA      7779       1    2243     228    2244     176
CTETRA      7780       1    3058    1224    1217    1015
CTETRA      7781       1    3182    1738    1737    1501
CTETRA      7782       1    2090    2100    2099     392
CTETRA      7783       1    3598     401    1019     987
CTETRA      7784       1    1098     907    1017     875
CTETRA      7785       1    2401    2409    2410    1196
CTETRA      7786       1     108     393     399     394
CTETRA      7787       1     670     987     423     398
CTETRA      7788       1    3440    3763    3762     201
CTETRA      7789       1    2682     922    2691     835
CTETRA      7790       1    3442    3443    2263     792
CTETRA      7791       1    2419     675    2420     721
CTETRA      7792       1    1905    1920    1919     242
CTETRA      7793       1    2420    2428     720     675
CTETRA      7794       1    3447     766     765     767
CTETRA      7795       1    2261     563    1054     560
CTETRA      7796       1    1903     298    1917     125
CTETRA      7797       1    3111    3454     529     530
CTETRA      7798       1    3441    3442    2263     428
CTETRA      7799       1     637     539     632     541
CTETRA      7800       1    3415    2242    2238     886
CTETRA      7801       1    2099     392    2417     580
CTETRA      7802       1    2466    2470     386     470
CTETRA      7803       1    3088    2257    2238      89
CTETRA      7804       1    3483    3484    2268     973
CTETRA      7805       1    3610    3611    2100    2423
CTETRA      7806       1    1628     126     491     944
CTETRA      7807       1    2418     675     386     580
CTETRA      7808       1     800     604     798     482
CTETRA      7809       1    1899    1900    1915     805
CTETRA      7810       1    2585     675     386     721
CTETRA      7811       1    2465    1182    2471     470
CTETRA      7812       1    3092    2251    2250     868
CTETRA      7813       1    2419    2466     386     721
CTETRA      7814       1    2915    1605    2916      86
CTETRA      7815       1    2915      23    1605      86
CTETRA      7816       1    3104    1550    1543     502
CTETRA      7817       1    3453     529     527     190
CTETRA      7818       1    3232    1938    1544    1546
CTETRA      7819       1    3441    3761     200     201
CTETRA      7820       1    2394    2398    2397     842
CTETRA      7821       1    2914    1605    2915      23
CTETRA      7822       1    3239    1931    1542    1556
CTETRA      7823       1    1606    1039      23      60
CTETRA      7824       1    1603      23      22      60
CTETRA      7825       1     824      29      23    1174
CTETRA      7826       1    3298    1606    2936     824
CTETRA      7827       1    1605      23    1607      86
CTETRA      7828       1    3853    3553    1712     481
CTETRA      7829       1    1605    1608    1607      23
CTETRA      7830       1    2432     445     447     444
CTETRA      7831       1    2438     447    2449     674
CTETRA      7832       1    2027    2028    1133     103
CTETRA      7833       1    2439     447    2440     444
CTETRA      7834       1    2442     433     444     421
CTETRA      7835       1    1733    1735    1007     269
CTETRA      7836       1    1967    1982    1981    1109
CTETRA      7837       1    1393    2785    1396    1099
CTETRA      7838       1    1391     442    2715     624
CTETRA      7839       1    2042    1133     778     593
CTETRA      7840       1    2046     931    1134     735
CTETRA      7841       1    3028    3029    1472    1095
CTETRA      7842       1    2424     421    2440     392
CTETRA      7843       1    2431     445    2432     444
CTETRA      7844       1    2785    1099    1032    1034
CTETRA      7845       1    3786    2618    2632     829
CTETRA      7846       1    3583    1991     136     142
CTETRA      7847       1    3244    1955    3245      43
CTETRA      7848       1    1961    1962    1976      66
CTETRA      7849       1    2431    2442     433     444
CTETRA      7850       1    1884    1885     891    1113
CTETRA      7851       1    3586    3587    2050     457
CTETRA      7852       1    1360    1363    2636    2669
CTETRA      7853       1     176    1042     865      93
CTETRA      7854       1    2017     135    2018     931
CTETRA      7855       1    2001    2002    2017     480
CTETRA      7856       1    1334    2632    1339     829
CTETRA      7857       1    2012    2028    2027     103
CTETRA      7858       1     865    1042     868      93
CTETRA      7859       1    2048    2064    2063     456
CTETRA      7860       1    3587    3990    2065     455
CTETRA      7861       1    2037    2053    2052     545
CTETRA      7862       1     865     868    1042     818
CTETRA      7863       1    2006    2007    2021     677
CTETRA      7864       1    1113    1042     868     818
CTETRA      7865       1    1980    1981    1995     102
CTETRA      7866       1    3777    1360    2619    2669
CTETRA      7867       1    2018    2034    2033     678
CTETRA      7868       1    1113     868     892     818
CTETRA      7869       1    2008    2024    2023     679
CTETRA      7870       1    1991    1992    2006     677
CTETRA      7871       1     826     825     606     611
CTETRA      7872       1    1892     715     761     827
CTETRA      7873       1     761     827     715     608
CTETRA      7874       1    3901    2785    1393    1099
CTETRA      7875       1    1908    1038    1909     825
CTETRA      7876       1    1907     826     761     825
CTETRA      7877       1    1892     761    1907     827
CTETRA      7878       1    3776    1363    3777    2669
CTETRA      7879       1    1994    2009    2008     677
CTETRA      7880       1    1992    2007    2006     677
CTETRA      7881       1    3901    1393    1390    1099
CTETRA      7882       1    1150     742     744     741
CTETRA      7883       1    1191     122     746     741
CTETRA      7884       1    2063    2064     454     456
CTETRA      7885       1    2040    2041    2056     593
CTETRA      7886       1     885    1178     122      35
CTETRA      7887       1    3260    2056    3261     593
CTETRA      7888       1    3259    2055    3260     594
CTETRA      7889       1    1940     746     122    1178
CTETRA      7890       1      43     523     521     469
CTETRA      7891       1    3148    1491    3149    1016
CTETRA      7892       1    1940    1941     122     746
CTETRA      7893       1    3611    2417    2099    2423
CTETRA      7894       1    3240    1959    3241      72
CTETRA      7895       1    1910     742    1911     746
CTETRA      7896       1    1910    1037     744     746
CTETRA      7897       1    1953    1968    1967     522
CTETRA      7898       1    3989    1571    3254     110
CTETRA      7899       1      19      15     448      12
CTETRA      7900       1    2535    1210     461     543
CTETRA      7901       1    2546     461    1153     962
CTETRA      7902       1    1687    1690    1689     879
CTETRA      7903       1    1997    1998    2013     337
CTETRA      7904       1    2546    2547    1153     461
CTETRA      7905       1    1957    1958    1972      44
CTETRA      7906       1    1949    1950    1964     113
CTETRA      7907       1    3149    1567    1016     111
CTETRA      7908       1    2534     459    2535     461
CTETRA      7909       1    3241    1959    1958      72
CTETRA      7910       1    1967     522    1968    1109
CTETRA      7911       1    3580    1960    3989      68
CTETRA      7912       1    1970    1971    1985      74
CTETRA      7913       1    3251    1949    1948     113
CTETRA      7914       1    3033    3034    1474    1131
CTETRA      7915       1    3709    2511    2111    2513
CTETRA      7916       1    3996    3407     432     878
CTETRA      7917       1    3989    3240    1572     110
CTETRA      7918       1    3010     186    1681     911
CTETRA      7919       1    2409     461     962    1196
CTETRA      7920       1    3718    2087    2536    2537
CTETRA      7921       1    2538    2539    1097     264
CTETRA      7922       1    2412     461     459     264
CTETRA      7923       1    3058    1217    3059    1015
CTETRA      7924       1    1013      21    1015      61
CTETRA      7925       1    1013      61    1015    1014
CTETRA      7926       1    2535    2537    2536     543
CTETRA      7927       1    2383    2384    2413    1097
CTETRA      7928       1    2066    2107    2366     537
CTETRA      7929       1    1008    1015      91     775
CTETRA      7930       1    1760    1008     775    1014
CTETRA      7931       1    3085     766    2253     856
CTETRA      7932       1     716     765     769     771
CTETRA      7933       1    1863     717     716    1067
CTETRA      7934       1    1847     769     771    1067
CTETRA      7935       1     716     771     769    1067
CTETRA      7936       1    3718    2087    3719    2536
CTETRA      7937       1    2686    2687    2702     734
CTETRA      7938       1     716     856     771    1067
CTETRA      7939       1    2072    2073    2075    1172
CTETRA      7940       1    2105    2106    2108      81
CTETRA      7941       1    3085    2253    3086     856
CTETRA      7942       1    2240     702    2251     865
CTETRA      7943       1     867     892     868     818
CTETRA      7944       1    2250    2251    1192     868
CTETRA      7945       1    1678     254     969     999
CTETRA      7946       1    3425    3426    1192     892
CTETRA      7947       1    3320    1631    1630     892
CTETRA      7948       1    2556    2559     105     185
CTETRA      7949       1    2838     840    1050     635
CTETRA      7950       1    2453    2460    1155     471
CTETRA      7951       1    2551    1155    2558     185
CTETRA      7952       1    2552    2556     189     185
CTETRA      7953       1    2479     189     105     185
CTETRA      7954       1    3630    3631    2108    2378
CTETRA      7955       1    3877    2841    2746     684
CTETRA      7956       1    1674     832    1678     838
CTETRA      7957       1    1668     832    1676     753
CTETRA      7958       1     791     490     531    1036
CTETRA      7959       1    1668     754     753     252
CTETRA      7960       1    1668     754     832     753
CTETRA      7961       1    3623    3624    2115    2379
CTETRA      7962       1    3624    3625    2115    2380
CTETRA      7963       1    1678     832     754     254
CTETRA      7964       1    3702    2584    2121     470
CTETRA      7965       1    1669    1678     754     252
CTETRA      7966       1    1668    1669     754     252
CTETRA      7967       1    1738     950    1753     656
CTETRA      7968       1     391     932     796     649
CTETRA      7969       1    3619    2125    2129    2455
CTETRA      7970       1    3704    2130    3705    2561
CTETRA      7971       1    2118    2119    2129    1182
CTETRA      7972       1    1783      41    1122     759
CTETRA      7973       1    1783     949    1122     655
CTETRA      7974       1    3940    2139    2136    2847
CTETRA      7975       1    3805     282     791    1036
CTETRA      7976       1    2868    1069    2873    1111
CTETRA      7977       1     992     991     990     989
CTETRA      7978       1    3949    2166    2163    2828
CTETRA      7979       1    3997    3505    3805     282
CTETRA      7980       1    2853     954     311    1158
CTETRA      7981       1    2641    2642    2648     954
CTETRA      7982       1    1349    1350    1353     814
CTETRA      7983       1     283      59     989     613
CTETRA      7984       1     492     988     989      59
CTETRA      7985       1    3382    3872    1717     283
CTETRA      7986       1    3844    2158    3845    2649
CTETRA      7987       1    3997    3506    3505     282
CTETRA      7988       1    3948    3949    2163    2820
CTETRA      7989       1    2361     473    2373     474
CTETRA      7990       1    2569    2582    2583     672
CTETRA      7991       1    1328    1333    1332     473
CTETRA      7992       1    2370    2373     473    1102
CTETRA      7993       1    2373     473    1102     474
CTETRA      7994       1    2370    2393    2392     845
CTETRA      7995       1    1993    2008    2007     677
CTETRA      7996       1    2360    2393    2370     473
CTETRA      7997       1     354     353    1077     863
CTETRA      7998       1     866     646    1077     863
CTETRA      7999       1    3138    1478    1477     566
CTETRA      8000       1    1766    1781     861     352
CTETRA      8001       1    2836    2841    2840     683
CTETRA      8002       1    2754    2837     837     622
CTETRA      8003       1    2170    2171    2174     531
CTETRA      8004       1    1781     786     861     352
CTETRA      8005       1    1766     861     354     352
CTETRA      8006       1    3590     861    3591     855
CTETRA      8007       1    2745    1201     687     404
CTETRA      8008       1     271     684     687     288
CTETRA      8009       1     277     288     279     682
CTETRA      8010       1    1140    1195     477     288
CTETRA      8011       1    2653    2663     806     697
CTETRA      8012       1    2655     477    1195     220
CTETRA      8013       1    3849    2170    2173    2609
CTETRA      8014       1    3848    2170    3849    2607
CTETRA      8015       1    3832    2187    2703    2735
CTETRA      8016       1    1195     687     403     220
CTETRA      8017       1    2841     687     683     220
CTETRA      8018       1    2836    2841     683     220
CTETRA      8019       1    2131    2868    1069    1029
CTETRA      8020       1    1980    1981     102      73
CTETRA      8021       1    1953     523    1954     469
CTETRA      8022       1    2759    2793    2792    1066
CTETRA      8023       1    1952    1953     522     523
CTETRA      8024       1    2210     306    2214     731
CTETRA      8025       1    2758    2794    2793     651
CTETRA      8026       1    1951    1952     522     521
CTETRA      8027       1    1958      42      72      44
CTETRA      8028       1    2496    2497    2544     350
CTETRA      8029       1    3827    2202    2736    2737
CTETRA      8030       1    3932    2194    2197    2757
CTETRA      8031       1    2497     350    2498     351
CTETRA      8032       1    2082    2085     359     358
CTETRA      8033       1    2080    2082    2081     359
CTETRA      8034       1     462     349     357    1210
CTETRA      8035       1    2188    2192     864    1030
CTETRA      8036       1    2870    2875    1103    1030
CTETRA      8037       1    3383    1714    1715     591
CTETRA      8038       1    2542     350    1210     543
CTETRA      8039       1    2079     320    2082     359
CTETRA      8040       1    1916    1215    1917     301
CTETRA      8041       1    1275    1276    1278     672
CTETRA      8042       1    1932    1549    1542     301
CTETRA      8043       1    2094     426    2095     424
CTETRA      8044       1    1713     589    1714     613
CTETRA      8045       1    2705    2706    2731    1066
CTETRA      8046       1    3555    2325     481     590
CTETRA      8047       1    3852    3555    1713     356
CTETRA      8048       1    3851    3556    3852     356
CTETRA      8049       1    2225     525     915     913
CTETRA      8050       1     731     834     526     167
CTETRA      8051       1    3957    2763    2752     722
CTETRA      8052       1    2808     167    2814     913
CTETRA      8053       1     282     989     283      64
CTETRA      8054       1    3324    1624    3325     944
CTETRA      8055       1    3851    1716     992     356
CTETRA      8056       1    2228    2229    2232    1188
CTETRA      8057       1    1757      50     916     602
CTETRA      8058       1     581     578     916      50
CTETRA      8059       1    1757     581     916      50
CTETRA      8060       1    2674    2680    2679     653
CTETRA      8061       1    3322    3428    1629    1189
CTETRA      8062       1     894    1190     896     895
CTETRA      8063       1    3430    3431    1125     905
CTETRA      8064       1     894    1190    1125     905
CTETRA      8065       1    1625     126     905     926
CTETRA      8066       1    3093    2248    3971     896
CTETRA      8067       1    3428    2249    2248     896
CTETRA      8068       1    1625    1626     905     126
CTETRA      8069       1    3468      48      47     926
CTETRA      8070       1    2169    2821    2172     635
CTETRA      8071       1    1215      47      48     926
CTETRA      8072       1    1796    1078    1811     787
CTETRA      8073       1    3575      28    1870     894
CTETRA      8074       1    3970     572    1523     208
CTETRA      8075       1    3575    3576    1885      28
CTETRA      8076       1    3432    3433    2247     893
CTETRA      8077       1    1080     208     207    1079
CTETRA      8078       1    3425    2250    2251    1192
CTETRA      8079       1    3594    1825     787     572
CTETRA      8080       1    3093    2250    2248     896
CTETRA      8081       1    1796     786    1078     787
CTETRA      8082       1    3412    2257    2256      82
CTETRA      8083       1    3594    1840    1825     572
CTETRA      8084       1     787     572     788     789
CTETRA      8085       1    3315    1635    3417    1636
CTETRA      8086       1    1080     572     208     789
CTETRA      8087       1    3414    2238    2257     886
CTETRA      8088       1    3973     666    3109    1101
CTETRA      8089       1     760     807     762     808
CTETRA      8090       1    2951    2952     665     666
CTETRA      8091       1    1816    1198     669     668
CTETRA      8092       1    1831    1515    1511     668
CTETRA      8093       1    3314    1636    3415    1637
CTETRA      8094       1    2953     601    1256     664
CTETRA      8095       1     669    1198     596     597
CTETRA      8096       1    3414    2257    1149     886
CTETRA      8097       1     669     665     597     661
CTETRA      8098       1    1843    1533    1532     518
CTETRA      8099       1    1845    1534    1527    1054
CTETRA      8100       1    3080    2246    2239     518
CTETRA      8101       1    3083    3084    1527     770
CTETRA      8102       1    2162    2163    2166     839
CTETRA      8103       1    2426    2427    2446     194
CTETRA      8104       1    3347    3348    1706     852
CTETRA      8105       1    3083    2260    2263    1054
CTETRA      8106       1    2992    1047    1063    1046
CTETRA      8107       1     563    1054    1045     785
CTETRA      8108       1    2262     486     560     518
CTETRA      8109       1    3346    3347    1707     851
CTETRA      8110       1    1706     318     216     852
CTETRA      8111       1    3469    3470    2275     925
CTETRA      8112       1    3345    1711    3114    1046
CTETRA      8113       1     447     444     419     420
CTETRA      8114       1    3578      79    1916     373
CTETRA      8115       1    2492     974    2494     419
CTETRA      8116       1     423     445     426     398
CTETRA      8117       1    2093     426    2094     433
CTETRA      8118       1    2165    2168     532     635
CTETRA      8119       1    3469    2275    2271      48
CTETRA      8120       1    1215      47     124     301
CTETRA      8121       1    3176    2321    3177     969
CTETRA      8122       1    2092    2493     426     419
CTETRA      8123       1    2092     426    2093     421
CTETRA      8124       1    3972    2275    2274     993
CTETRA      8125       1    3342    1625    1622     926
CTETRA      8126       1     445     974     426     398
CTETRA      8127       1    2639    2640     840     869
CTETRA      8128       1    2639    1108     840     218
CTETRA      8129       1    3436    3767    3437     630
CTETRA      8130       1    1050     840     532     635
CTETRA      8131       1    2822     840    1108     218
CTETRA      8132       1    2822    2838     840     218
CTETRA      8133       1    2271    2273      47     301
CTETRA      8134       1    3344    3465    1627    1197
CTETRA      8135       1    3108    2272    2273     301
CTETRA      8136       1    2840     837    2842    1050
CTETRA      8137       1    3099    3100    1545    1178
CTETRA      8138       1    2837    2842     837    1050
CTETRA      8139       1    1909    1910    1924    1037
CTETRA      8140       1    2755    2839    2837     622
CTETRA      8141       1    2822     635    2828     839
CTETRA      8142       1    2601    2606    2602     724
CTETRA      8143       1     493     530     499     495
CTETRA      8144       1     241     242    1058    1207
CTETRA      8145       1    2161     869    2165     532
CTETRA      8146       1    3164    3983    1588     280
CTETRA      8147       1    1584    1586     568    1177
CTETRA      8148       1    3585    2006    2021     678
CTETRA      8149       1    2640     840     869     532
CTETRA      8150       1    1223    1216    1009    1059
CTETRA      8151       1    3057    3058    1497     775
CTETRA      8152       1    3386    1724    1726    1179
CTETRA      8153       1    1744    1496    1497     775
CTETRA      8154       1    2499    2500    2588    1000
CTETRA      8155       1     590     613      59     173
CTETRA      8156       1     195     199     196     772
CTETRA      8157       1    1052     210     199     738
CTETRA      8158       1    3384    3385    3510    1712
CTETRA      8159       1    3065     947    3066     773
CTETRA      8160       1    1587     434      45    1184
CTETRA      8161       1    3551    1724     180     497
CTETRA      8162       1     204     210     772     571
CTETRA      8163       1     195     210     199     772
CTETRA      8164       1    3385    1724    3386    1179
CTETRA      8165       1    2786    2787    1156    1065
CTETRA      8166       1    2317     992     990     590
CTETRA      8167       1    2787    1065    2792    1194
CTETRA      8168       1    3885    1373    1376    2749
CTETRA      8169       1    2009     144    2010     101
CTETRA      8170       1    2731    1194    1041    1066
CTETRA      8171       1    3368    1705    1704     978
CTETRA      8172       1    1282    1285    1283     986
CTETRA      8173       1    2799    2800    1193     418
CTETRA      8174       1    3142    1470    1472     226
CTETRA      8175       1    2775     415     922     831
CTETRA      8176       1    2799    1193    1144     415
CTETRA      8177       1    3395    1729    1727     514
CTETRA      8178       1    3526    3527    2309     906
CTETRA      8179       1    2717    1156    2726    1065
CTETRA      8180       1    1701    1703     119     378
CTETRA      8181       1    3757    1283    1284    2499
CTETRA      8182       1    2720     417    1156    1022
CTETRA      8183       1     906     519    1148     268
CTETRA      8184       1      38     645     349     360
CTETRA      8185       1     354     355     512     347
CTETRA      8186       1    2316     515     267     257
CTETRA      8187       1    3179    2326    3984     169
CTETRA      8188       1    1738     654     950     656
CTETRA      8189       1    3159    2310    2304     366
CTETRA      8190       1    1737     654    1738     656
CTETRA      8191       1    1767     655     354     656
CTETRA      8192       1    3394    1731    1729     906
CTETRA      8193       1    1737     654     656     512
CTETRA      8194       1     581     577     129    1082
CTETRA      8195       1     662     585     577    1087
CTETRA      8196       1    1085    1083    1086    1082
CTETRA      8197       1    2295     568    2296     544
CTETRA      8198       1    3569    3570    2337     368
CTETRA      8199       1     515     330     257     513
CTETRA      8200       1    3538    2320    2316    1006
CTETRA      8201       1    3174    2335    2316     257
CTETRA      8202       1    2947    1086    1085    1083
CTETRA      8203       1    2947    1248    1085    1086
CTETRA      8204       1    2196    2738    2199    1049
CTETRA      8205       1    3518    2296    2292     286
CTETRA      8206       1    2591    2593    2592    1074
CTETRA      8207       1    3165    3166    1673     971
CTETRA      8208       1    1185     446     445    1117
CTETRA      8209       1    3554    3555    2325     481
CTETRA      8210       1    1185    1074     446    1117
CTETRA      8211       1     149     384     388     155
CTETRA      8212       1    2592    2593    1185    1074
CTETRA      8213       1    2590    2591    1117    1114
CTETRA      8214       1    2492    2592    1185     419
CTETRA      8215       1    1599    1601      92     776
CTETRA      8216       1    3853    3555    3554     481
CTETRA      8217       1    2908    1009    1216      92
CTETRA      8218       1    2908    2909    1009      92
CTETRA      8219       1     269     967     551     520
CTETRA      8220       1    3537     267    2316     515
CTETRA      8221       1    1006    1007     253     269
CTETRA      8222       1    3534    3535    2334     513
CTETRA      8223       1      92     776     128    1206
CTETRA      8224       1    2890    3650    2891     262
CTETRA      8225       1    1620     259    1621    1075
CTETRA      8226       1    1216      92     128     129
CTETRA      8227       1    2959    3731    2960      38
CTETRA      8228       1    2891    3650    3649     262
CTETRA      8229       1    3649    3650     320     358
CTETRA      8230       1    1738     654    1500     797
CTETRA      8231       1    2892    2893     391     643
CTETRA      8232       1    1282    1286     936     340
CTETRA      8233       1    1599      92    1600     776
CTETRA      8234       1    1282    1292    1289     339
CTETRA      8235       1    2908    1216    1597      92
CTETRA      8236       1     361     320     357     358
CTETRA      8237       1    1775    1008    1090     128
CTETRA      8238       1    1013      22      21      24
CTETRA      8239       1    3652    2354    1297    2356
CTETRA      8240       1    1776    1013     389      24
CTETRA      8241       1    1089     776    1090    1174
CTETRA      8242       1    3925    2215    2218    2814
CTETRA      8243       1    3651    3652    1297    2356
CTETRA      8244       1    3110    1297    1298    1100
CTETRA      8245       1    3053    1227    1230     935
CTETRA      8246       1    1272    2570    2573     194
CTETRA      8247       1    2492    1185     974     419
CTETRA      8248       1    2592    1074    1185    1117
CTETRA      8249       1    2492    1185    2495     974
CTETRA      8250       1    3690     397    2495    1185
CTETRA      8251       1    3630    2108    2377    2378
CTETRA      8252       1    3096    1552    1554     605
CTETRA      8253       1    3691     570     406    1074
CTETRA      8254       1     891    1112    1042     818
CTETRA      8255       1     108     381     109     394
CTETRA      8256       1    3691    1185    2593    1074
CTETRA      8257       1    2583     720     674     675
CTETRA      8258       1    1777     389    1778      29
CTETRA      8259       1    2367    2377    2376     642
CTETRA      8260       1    1306    1309     187      65
CTETRA      8261       1    2524    2525    2539     265
CTETRA      8262       1    3662    1322    1326    2392
CTETRA      8263       1    1792    1793    1807     945
CTETRA      8264       1    2108    2109    2377     642
CTETRA      8265       1    2524    2531    2530     693
CTETRA      8266       1    3662    3663    1322    2392
CTETRA      8267       1    2533     962     983     266
CTETRA      8268       1    3658    1323    1302    2397
CTETRA      8269       1    2523    2528    2531     691
CTETRA      8270       1    2369    2391    2389     691
CTETRA      8271       1    1778     389     898      29
CTETRA      8272       1    1610    1612     739     942
CTETRA      8273       1    3620    2461    2128    2462
CTETRA      8274       1    1610     739      86     942
CTETRA      8275       1    1792     945     941      29
CTETRA      8276       1    3665    1328    2360    2458
CTETRA      8277       1     898      29     389      86
CTETRA      8278       1    2579    2582    2581     338
CTETRA      8279       1    1089      24     941    1174
CTETRA      8280       1    1136      29      86     942
CTETRA      8281       1    1269     672    1273     194
CTETRA      8282       1     127     129    1083    1082
CTETRA      8283       1    1803    1084     579    1081
CTETRA      8284       1    1789    1804    1081     128
CTETRA      8285       1    1084     579    1081    1082
CTETRA      8286       1    2413    2415    2414     537
CTETRA      8287       1    3634    2074    2071    2415
CTETRA      8288       1    3635    2405    2074    2415
CTETRA      8289       1    3627    3628    2101    2382
CTETRA      8290       1    3565    3874      30     843
CTETRA      8291       1    3565    3874    3566      30
CTETRA      8292       1    2101    2381    2382     690
CTETRA      8293       1    2512    2514    2515     535
CTETRA      8294       1    3874     843    3875      36
CTETRA      8295       1    3564    3875    3565     270
CTETRA      8296       1    3875     270    3876     271
CTETRA      8297       1     959     718     586    1168
CTETRA      8298       1    3118      25    1383     707
CTETRA      8299       1    1758     774     581    1059
CTETRA      8300       1     581     774    1081     129
CTETRA      8301       1    1851    1852    1867      90
CTETRA      8302       1    2376    2377    2382     642
CTETRA      8303       1    3622    2365    2128    2461
CTETRA      8304       1    2128    2461    2365    2463
CTETRA      8305       1    1773    1788     579    1081
CTETRA      8306       1    2361     472    2459     258
CTETRA      8307       1    3664    3665    1332    2360
CTETRA      8308       1    1772     916     581     579
CTETRA      8309       1    1756    1757     916     602
CTETRA      8310       1     581     916     578     579
CTETRA      8311       1     581     579     577    1082
CTETRA      8312       1     581     578     577     579
CTETRA      8313       1     581    1081     579    1082
CTETRA      8314       1    3613    2122    2120    2469
CTETRA      8315       1     774    1216     129    1059
CTETRA      8316       1    1109    1033     337     479
CTETRA      8317       1    1998    1109    1999     337
CTETRA      8318       1    2569    2570    2582     672
CTETRA      8319       1    3678    3679    1269    2443
CTETRA      8320       1     480     140     135     479
CTETRA      8321       1    1304    2484      65      69
CTETRA      8322       1    1994     677     143     144
CTETRA      8323       1    1997    1109    1998     337
CTETRA      8324       1    2476    2484    2483      69
CTETRA      8325       1    3934    2188    2191    2872
CTETRA      8326       1    2218    2219    2222     913
CTETRA      8327       1    1876    1891     764     715
CTETRA      8328       1    1311    1312    2422     187
CTETRA      8329       1    1306     187    2565      65
CTETRA      8330       1     397     974    1185     399
CTETRA      8331       1    1893     760     761     715
CTETRA      8332       1     987     445     398     399
CTETRA      8333       1    2091    2092    2097     421
CTETRA      8334       1    2491    2495    2492    1185
CTETRA      8335       1    3700    2098    3701    2576
CTETRA      8336       1    3598    3599    2432     987
CTETRA      8337       1    1878     760     715     717
CTETRA      8338       1    2093    2095    2094     426
CTETRA      8339       1    1269    2443     672     194
CTETRA      8340       1    2432     445     987     446
CTETRA      8341       1     760     761     715     608
CTETRA      8342       1     716     715     767     608
CTETRA      8343       1     764     716     715     767
CTETRA      8344       1     716     717     715     808
CTETRA      8345       1    2908    1223    1216    1009
CTETRA      8346       1     581     129     582    1059
CTETRA      8347       1     774    1216     128     129
CTETRA      8348       1    1597     127      92     129
CTETRA      8349       1    2717     442    2721    1022
CTETRA      8350       1    2419     386     675     721
CTETRA      8351       1    3627    2101    2116    2381
CTETRA      8352       1    2068    2105     263     475
CTETRA      8353       1    2906    1221     582    1216
CTETRA      8354       1    3716    2075    3717    2537
CTETRA      8355       1    2383      80    2390     265
CTETRA      8356       1     939     161    1208    1012
CTETRA      8357       1    2525    2530    2529     263
CTETRA      8358       1    2404    2413    2412     459
CTETRA      8359       1    2079    2080    2086     350
CTETRA      8360       1    2524    2530    2525     265
CTETRA      8361       1    2520    2530    2531     693
CTETRA      8362       1    2107    2108    2378      81
CTETRA      8363       1    2906    1216     582     129
CTETRA      8364       1    1595     127    1597     129
CTETRA      8365       1    2127    2502    1155     688
CTETRA      8366       1    2108    2377    2378     642
CTETRA      8367       1    2460    2463    1155     688
CTETRA      8368       1    3716    2072    2075    1172
CTETRA      8369       1    2383    1097    2413     537
CTETRA      8370       1    2363    2364     688     535
CTETRA      8371       1    2374    2380     536     534
CTETRA      8372       1    1203     912    1186     725
CTETRA      8373       1    3644     160    3645     465
CTETRA      8374       1    1272    1275    2570     672
CTETRA      8375       1    2606     724     538    1186
CTETRA      8376       1    3926    2809    2212     167
CTETRA      8377       1    2894    3647    3646     933
CTETRA      8378       1    2534    2539    2538     264
CTETRA      8379       1    1137    1210     350     543
CTETRA      8380       1    3799    1424    3800    2677
CTETRA      8381       1    2687    2690     723     734
CTETRA      8382       1    2601     628    2606     724
CTETRA      8383       1    2601     723     628     724
CTETRA      8384       1    2574     187     194     720
CTETRA      8385       1    2564     187     680      65
CTETRA      8386       1    1772     574     916     585
CTETRA      8387       1    1772    1787     585     579
CTETRA      8388       1    1772    1787    1786     585
CTETRA      8389       1    2579    2581    2580     339
CTETRA      8390       1    1786     669     574     585
CTETRA      8391       1    2453    2463    2454    1155
CTETRA      8392       1    2118    2129    2130    1202
CTETRA      8393       1    3073    1251     665     668
CTETRA      8394       1    2562    2572    2571    1182
CTETRA      8395       1    2125    2130    2129    1202
CTETRA      8396       1    2561    2562    2571    1202
CTETRA      8397       1     663     584     585    1087
CTETRA      8398       1     585     577     584     579
CTETRA      8399       1    2098     386    2576     580
CTETRA      8400       1    2465    2474    2473     681
CTETRA      8401       1    2553    2556    2557     189
CTETRA      8402       1     916     585     584     579
CTETRA      8403       1    1271    2573    2565     194
CTETRA      8404       1     916      50      51     602
CTETRA      8405       1    2120    2469    2122     386
CTETRA      8406       1     663     585     660     661
CTETRA      8407       1     659     663     660     661
CTETRA      8408       1    1269    2443    1274     672
CTETRA      8409       1    2432    2437    2433     446
CTETRA      8410       1    2491    2492    2592    1185
CTETRA      8411       1    3144    1474     308     980
CTETRA      8412       1    3144     308    1557     980
CTETRA      8413       1    3143    1473    3144     980
CTETRA      8414       1    1473    1131     980     981
CTETRA      8415       1    1802    1803     662     579
CTETRA      8416       1    1788    1803     579    1081
CTETRA      8417       1    2189    1049    1030    1120
CTETRA      8418       1     662     663     667     661
CTETRA      8419       1    1801    1816     669     662
CTETRA      8420       1     723     724     734     725
CTETRA      8421       1    1084    1086     662    1082
CTETRA      8422       1     553     816     554     784
CTETRA      8423       1     662    1087     577    1082
CTETRA      8424       1    2242     886    1183    1135
CTETRA      8425       1    1150     743     742     741
CTETRA      8426       1     228     175     229     817
CTETRA      8427       1    3416    1183    2242     886
CTETRA      8428       1    2146    2147    2150     880
CTETRA      8429       1    3416    1636    3417     740
CTETRA      8430       1     954     880     311    1158
CTETRA      8431       1    2637    2641    2638     213
CTETRA      8432       1     730    1183     229     743
CTETRA      8433       1    3418    3419    1183     740
CTETRA      8434       1    3319    3424    3423     867
CTETRA      8435       1    1002    1106     214     215
CTETRA      8436       1    2637    2665    2666     219
CTETRA      8437       1    3774    1369    3775    2668
CTETRA      8438       1    1346    1350    1349     814
CTETRA      8439       1    1636     740     886     745
CTETRA      8440       1    3773    1375    1372    2658
CTETRA      8441       1    3417    1636    1635     740
CTETRA      8442       1    2494    2495    1164     974
CTETRA      8443       1    3889    3890    1361    2833
CTETRA      8444       1    2596    2597    2657     403
CTETRA      8445       1    3773    1372    3774    2658
CTETRA      8446       1    3397    1725    1718     849
CTETRA      8447       1     432     381     777     425
CTETRA      8448       1    2494     974    1164     426
CTETRA      8449       1    3697    2093    2494     426
CTETRA      8450       1    2360    2370    2361     473
CTETRA      8451       1    3697     426    1164     319
CTETRA      8452       1    3688    1164     427     319
CTETRA      8453       1    3997    3850    3872    3805
CTETRA      8454       1    1637     886    1149     745
CTETRA      8455       1    1149      33     745      84
CTETRA      8456       1    2075    2087    2537    1172
CTETRA      8457       1    3412    1149    2257      82
CTETRA      8458       1    3096    2266    2270     882
CTETRA      8459       1    2841     684     683     687
CTETRA      8460       1    3824    2211    2679    2699
CTETRA      8461       1    3824    2214    2211    2699
CTETRA      8462       1    2680    2696    2699     526
CTETRA      8463       1    2835     404     687     403
CTETRA      8464       1    2835     403     687     220
CTETRA      8465       1    3808     477    2654     686
CTETRA      8466       1    2693     636    1043     621
CTETRA      8467       1    2528     691     845    1102
CTETRA      8468       1     843    1168     718     272
CTETRA      8469       1    1080     207    1076    1079
CTETRA      8470       1    1080     789     208    1079
CTETRA      8471       1     787     208     789    1079
CTETRA      8472       1    2805    2806    2808     731
CTETRA      8473       1    2773    2804    2807     923
CTETRA      8474       1    3917    3918    1439    2882
CTETRA      8475       1    3798    1418    1421    1167
CTETRA      8476       1    1617    1075     348    1077
CTETRA      8477       1     352    1077    1076    1079
CTETRA      8478       1    1323    2398    1325     842
CTETRA      8479       1    1617    1619    1075    1076
CTETRA      8480       1    1078     352    1076    1079
CTETRA      8481       1    1075     352     348    1077
CTETRA      8482       1    2964    1213    1075    1076
CTETRA      8483       1    2964    2965    1213    1076
CTETRA      8484       1    3168    2339    2338     844
CTETRA      8485       1    3476    3477    2266     793
CTETRA      8486       1    3881     508     991     836
CTETRA      8487       1     420     392     421     422
CTETRA      8488       1    2590     447     420     674
CTETRA      8489       1     710     640     844     748
CTETRA      8490       1    3599     987    1018     446
CTETRA      8491       1    3875    3876    2745     271
CTETRA      8492       1    3876    3877    2746     271
CTETRA      8493       1    2595    2600    2596     402
CTETRA      8494       1    3878    3879    2840     685
CTETRA      8495       1      45     280    1184     440
CTETRA      8496       1    3167    2317    2340     971
CTETRA      8497       1    3599    1018    2437     446
CTETRA      8498       1    3805     714    3806     791
CTETRA      8499       1    1201     404     402     403
CTETRA      8500       1    3811    1140     290    1141
CTETRA      8501       1    2433     447     446    1114
CTETRA      8502       1    2764    2769    2765    1143
CTETRA      8503       1    1419    1423    1422     831
CTETRA      8504       1    1018     984     446    1073
CTETRA      8505       1    3099    1545    1541    1178
CTETRA      8506       1     885     745      33      35
CTETRA      8507       1    2840     683     837    1050
CTETRA      8508       1     885     973     745      35
CTETRA      8509       1    1924    1037    1925    1178
CTETRA      8510       1    1659     148      94     883
CTETRA      8511       1    3122    1458    3123      98
CTETRA      8512       1    2532    2541    2533     266
CTETRA      8513       1    1659    1662    1091     883
CTETRA      8514       1    2278     493     494     495
CTETRA      8515       1    1936    1937    1547     500
CTETRA      8516       1    1921     498     826     500
CTETRA      8517       1    1422    1425    1167     831
CTETRA      8518       1    3907    2780    1411    2781
CTETRA      8519       1    1398    1094     442    1034
CTETRA      8520       1    2717    2718    2726    1156
CTETRA      8521       1     994     248    1045     249
CTETRA      8522       1    1922     826    1937     500
CTETRA      8523       1     636     922     658     923
CTETRA      8524       1     630     540     628     627
CTETRA      8525       1    2602    2688    2687     914
CTETRA      8526       1    2772    2807    2811     923
CTETRA      8527       1    1543     500     528     494
CTETRA      8528       1    2286     241    1058    1207
CTETRA      8529       1     527     500     501     495
CTETRA      8530       1    1921     826    1922     500
CTETRA      8531       1    3269     312     434    1138
CTETRA      8532       1    3269      45    1587     434
CTETRA      8533       1    2763    2771    2776    1203
CTETRA      8534       1    2771    2811    2812     913
CTETRA      8535       1    2218     167    2219     913
CTETRA      8536       1    3105    3106    1548     299
CTETRA      8537       1    2158    2159    2162     869
CTETRA      8538       1    3948    2820    2163    2855
CTETRA      8539       1    2819    1108    2855     311
CTETRA      8540       1    2303     568     434     286
CTETRA      8541       1    3167    2339    3168     844
CTETRA      8542       1    3150    3151    1583     434
CTETRA      8543       1    2744    2745    2835     404
CTETRA      8544       1     174      59      77     588
CTETRA      8545       1    1364    1368    1367    1005
CTETRA      8546       1    2745     271    2746     687
CTETRA      8547       1    1383     587     409      25
CTETRA      8548       1     435    1184    1179     437
CTETRA      8549       1    2745    2750    1201     404
CTETRA      8550       1    2302     435     434    1184
CTETRA      8551       1    3336    3479    3478     557
CTETRA      8552       1    1876     764     994    1060
CTETRA      8553       1    3499    2312    2315       4
CTETRA      8554       1    2746    2841    2835     687
CTETRA      8555       1    2641    2643    2642     211
CTETRA      8556       1    2824    2825    2829    1003
CTETRA      8557       1    3084    1527     770     771
CTETRA      8558       1    2614    2626    2615    1069
CTETRA      8559       1    1352    2827     781     782
CTETRA      8560       1    3891    2826    1355     782
CTETRA      8561       1    2614    2623    2626    1110
CTETRA      8562       1    2644    2652    2648     880
CTETRA      8563       1    2819    2854    2853     311
CTETRA      8564       1    3337    3477    3476     793
CTETRA      8565       1    2818    2853    2850     212
CTETRA      8566       1    2149    2152    2651     880
CTETRA      8567       1    2853    2854    2859     311
CTETRA      8568       1    2157    2855    2160     311
CTETRA      8569       1    3942    2145    2142    2857
CTETRA      8570       1    3085     771     856    1067
CTETRA      8571       1    3946    2859    2854     311
CTETRA      8572       1    1861    1862     716    1067
CTETRA      8573       1    2164    2664    2640     532
CTETRA      8574       1    2147    2151    2150    1158
CTETRA      8575       1    2843     812     813     814
CTETRA      8576       1    2861    2879    2878     930
CTETRA      8577       1    1353    1354    1357     815
CTETRA      8578       1    1846     770     769    1060
CTETRA      8579       1    1846     770    1527     771
CTETRA      8580       1     696    1116     984    1072
CTETRA      8581       1    1336    1338    1337    1026
CTETRA      8582       1    3601    3602    2352     695
CTETRA      8583       1    1337    1341    1340    1026
CTETRA      8584       1    2846    2881    1110    1069
CTETRA      8585       1    1336    2863    1387     828
CTETRA      8586       1    2625     813     952    1092
CTETRA      8587       1     982     338     985    1114
CTETRA      8588       1    1185     446    1074     407
CTETRA      8589       1    2348     695    2352     984
CTETRA      8590       1    2348    2437    1018     984
CTETRA      8591       1    3900    1390    1387    2864
CTETRA      8592       1    1362    1003     781    1004
CTETRA      8593       1     928    1003    1005    1004
CTETRA      8594       1    1365    1368    1005    1004
CTETRA      8595       1    3889    1361    1364    2831
CTETRA      8596       1    1361    2831    2833    1005
CTETRA      8597       1    2363     688    2460     471
CTETRA      8598       1    1334    1386    1385     829
CTETRA      8599       1    2615    2624    2616     953
CTETRA      8600       1    1361     782    1362    1005
CTETRA      8601       1    2825    2833    2829    1003
CTETRA      8602       1    2833    1003     782    1005
CTETRA      8603       1    2843     813    2865     814
CTETRA      8604       1    3403    2962    2961     345
CTETRA      8605       1    2829    2830     928    1005
CTETRA      8606       1    2961    2962    1244     820
CTETRA      8607       1    3290    1618    2964    1619
CTETRA      8608       1    1237     355     346     512
CTETRA      8609       1    3673    2483    1304      69
CTETRA      8610       1    3326    3453    3327    1642
CTETRA      8611       1    1363     781    2636    1004
CTETRA      8612       1     637     951     539     727
CTETRA      8613       1    3971    2249    2245     895
CTETRA      8614       1    1859    1045    1874     890
CTETRA      8615       1    3026    1106    1708     214
CTETRA      8616       1    3648     643     361     357
CTETRA      8617       1    2342     357    1137     460
CTETRA      8618       1    2542    2550    2547    1210
CTETRA      8619       1    1874    1045     248     890
CTETRA      8620       1    1873     248    1160     890
CTETRA      8621       1    1874     994     248    1045
CTETRA      8622       1    1888    1889     245     248
CTETRA      8623       1    3342    3468    1625     926
CTETRA      8624       1    3111    1440    1439     700
CTETRA      8625       1    3918    3964    1439    2882
CTETRA      8626       1    3694    1165     524    1000
CTETRA      8627       1     982    1114     985    1073
CTETRA      8628       1    3441    3761    3442     200
CTETRA      8629       1    2588     982     339     986
CTETRA      8630       1    1142     804    1143     733
CTETRA      8631       1    3441    3762    3761     201
CTETRA      8632       1    3440     562     201     563
CTETRA      8633       1    3439    3763    3440     562
CTETRA      8634       1     696     936     340     986
CTETRA      8635       1    3456     854     493     783
CTETRA      8636       1    3102    2285    2284     528
CTETRA      8637       1    1669     846    1670     257
CTETRA      8638       1     696    1072    1001    1000
CTETRA      8639       1    2247     893    1124    1123
CTETRA      8640       1    3762    3763    2685    1163
CTETRA      8641       1    1160     726     920     921
CTETRA      8642       1    3575     894     516     369
CTETRA      8643       1     601     335     336     165
CTETRA      8644       1      27    1215     369     889
CTETRA      8645       1    2914    1603    1605      23
CTETRA      8646       1     933     643     357     648
CTETRA      8647       1    2913    1601    1603     997
CTETRA      8648       1    1008     997    1013      22
CTETRA      8649       1    2912    1601    2913     997
CTETRA      8650       1    3546    3547    2329     438
CTETRA      8651       1    1601    1603      22     776
CTETRA      8652       1    1175      60     776    1174
CTETRA      8653       1    3287    2903    2902    1592
CTETRA      8654       1    1175    1089    1039    1174
CTETRA      8655       1    3110    1593    3288     583
CTETRA      8656       1      87     283      77      64
CTETRA      8657       1    2563    2564    2575     680
CTETRA      8658       1    3287    2901    3288    1593
CTETRA      8659       1     123     124     126    1197
CTETRA      8660       1    1215     126     369     889
CTETRA      8661       1    2475    2477    2476     680
CTETRA      8662       1    1295     961     287    1162
CTETRA      8663       1    3644    3645    2401     465
CTETRA      8664       1    1253     335     599     336
CTETRA      8665       1    3638    2083    2078    2346
CTETRA      8666       1    1295    2488     961    1162
CTETRA      8667       1    2343    2404    2403     458
CTETRA      8668       1    3007    1679     414     151
CTETRA      8669       1    3365    1709    1708    1106
CTETRA      8670       1    3004    1683    3362     370
CTETRA      8671       1    3047     903    3048     183
CTETRA      8672       1    3023    1469     874     592
CTETRA      8673       1     274    1061     145     275
CTETRA      8674       1    1476    1106    1002     592
CTETRA      8675       1    2548    2549     467    1153
CTETRA      8676       1     139     130     275     383
CTETRA      8677       1    1211     467    1153    1152
CTETRA      8678       1    1566     956     364     566
CTETRA      8679       1      53       1      55      54
CTETRA      8680       1    2488    2546     961    1162
CTETRA      8681       1    2433    2449    2439     447
CTETRA      8682       1    2591    1074    2592    1117
CTETRA      8683       1    3599    2437    2432     446
CTETRA      8684       1    3600    2348    2437    1018
CTETRA      8685       1    2487     467     961    1153
CTETRA      8686       1    3609    2091    2097    2424
CTETRA      8687       1    3691    2593    3692    1074
CTETRA      8688       1    3693    2594     524     570
CTETRA      8689       1    2489    2490    1011     961
CTETRA      8690       1    2546     961    1162    1196
CTETRA      8691       1    3024    1106    1476     592
CTETRA      8692       1    1613    1035      85     737
CTETRA      8693       1     857    1052     855     737
CTETRA      8694       1    1795     855     857    1052
CTETRA      8695       1    1780     855    1795     859
CTETRA      8696       1    3546    2329    2318     438
CTETRA      8697       1    1035     737     646     860
CTETRA      8698       1    3307    3308    3446    1646
CTETRA      8699       1    1052    1136     737     738
CTETRA      8700       1    1780     855     859     899
CTETRA      8701       1    3113    1646    3445     841
CTETRA      8702       1    3113    3307    3445    1646
CTETRA      8703       1     977     395     400     431
CTETRA      8704       1    2684     619    2694     620
CTETRA      8705       1    2684    2695     619     732
CTETRA      8706       1    2419    2420    2474     721
CTETRA      8707       1    2678    2694    2695     621
CTETRA      8708       1    2678    2694     621     620
CTETRA      8709       1    1433    2612    2610     620
CTETRA      8710       1    3443    3760    3759     616
CTETRA      8711       1    3440    2260    2261     563
CTETRA      8712       1    1891    1906    1905     498
CTETRA      8713       1    3458    3961    3459     429
CTETRA      8714       1    3964     395     783     700
CTETRA      8715       1    3434    2239    2246     488
CTETRA      8716       1    1430     621    1434     431
CTETRA      8717       1     977     618     619     732
CTETRA      8718       1     658    1043     621     634
CTETRA      8719       1    2739    2767    2740     658
CTETRA      8720       1    3029    1471    1472     978
CTETRA      8721       1    2883    2884     400     395
CTETRA      8722       1    3568     413     927      31
CTETRA      8723       1     325     302     751     752
CTETRA      8724       1    3029    3367    3368    1705
CTETRA      8725       1     121     315    1021     222
CTETRA      8726       1    1432    2739     400     634
CTETRA      8727       1    1431     400     621     634
CTETRA      8728       1    2741    2766     804     400
CTETRA      8729       1    2741     977    2883     400
CTETRA      8730       1    3367    1706    1705    1095
CTETRA      8731       1    3581    1990    1975     141
CTETRA      8732       1    3024    1709    3365    1106
CTETRA      8733       1    2169    2828     635     839
CTETRA      8734       1    2661     531     806     532
CTETRA      8735       1    2164    2168    2167     532
CTETRA      8736       1    2653     791     686     806
CTETRA      8737       1     270     271     843     272
CTETRA      8738       1    2171     806    1050     622
CTETRA      8739       1    2161    2640     869     532
CTETRA      8740       1    2653     686    2654     697
CTETRA      8741       1    3012    3381    3996     911
CTETRA      8742       1    2935    1610    1608     390
CTETRA      8743       1     337    1033     735     144
CTETRA      8744       1    3996    1684    3407     878
CTETRA      8745       1    2429    2430    2438     420
CTETRA      8746       1     195     196     199     738
CTETRA      8747       1    2031     931    2046     735
CTETRA      8748       1    1607     824    1610      86
CTETRA      8749       1    3251    1564    1566    1025
CTETRA      8750       1    2091     421     392     422
CTETRA      8751       1    1607      23     824      86
CTETRA      8752       1    2418    2430     420     580
CTETRA      8753       1     329     551     268     255
CTETRA      8754       1     390     824     205     942
CTETRA      8755       1    3535     515    2334     513
CTETRA      8756       1    3172     847    1666     411
CTETRA      8757       1    3159    1575    1579    1159
CTETRA      8758       1    1180     303     910     293
CTETRA      8759       1    3395    3529    3528     514
CTETRA      8760       1    3495    2304    2310     365
CTETRA      8761       1    3864    3535    3534     513
CTETRA      8762       1    1897    1112     816     817
CTETRA      8763       1    1899     891     816    1112
CTETRA      8764       1    3851    1716    3870     992
CTETRA      8765       1    1914     816     805     708
CTETRA      8766       1    3954    3882    2176    2756
CTETRA      8767       1     816     708     554     794
CTETRA      8768       1     558     302     310     293
CTETRA      8769       1    3870    3882    3558     991
CTETRA      8770       1     805     816     376     795
CTETRA      8771       1     557     784     554     794
CTETRA      8772       1    2906    1221    1222     582
CTETRA      8773       1    1215     124      47     126
CTETRA      8774       1     664     659    1101     600
CTETRA      8775       1    1743    1744    1758    1059
CTETRA      8776       1    2904    2905    1222     582
CTETRA      8777       1    3575     894    1856     516
CTETRA      8778       1    3079    1526    1539    1123
CTETRA      8779       1    3300    3301    2940    1602
CTETRA      8780       1    2429    2438    2445     674
CTETRA      8781       1    3285    1589    1595     129
CTETRA      8782       1    2908    2909    1223    1009
CTETRA      8783       1    1744    1759    1059     775
CTETRA      8784       1    3151    2302    2303     434
CTETRA      8785       1    3469    1622     925     926
CTETRA      8786       1    1773     581     774    1081
CTETRA      8787       1    1595    1598    1597     127
CTETRA      8788       1    3285    2906    2905     129
CTETRA      8789       1    1622    1625     905     926
CTETRA      8790       1     638     123     511     920
CTETRA      8791       1    3539    3540    1006    1007
CTETRA      8792       1    3181    1737    1736    1494
CTETRA      8793       1     662     667    1086    1031
CTETRA      8794       1    3072    1251    3073    1031
CTETRA      8795       1    1737     656    1752     512
CTETRA      8796       1    1617    1619    1621    1075
CTETRA      8797       1    1832    1514    1515    1107
CTETRA      8798       1    3072    1515    1514    1107
CTETRA      8799       1     662    1031    1086    1107
CTETRA      8800       1    3181    1737    1494    1501
CTETRA      8801       1    1246    1086    1031    1107
CTETRA      8802       1    3841    2149    3842    2651
CTETRA      8803       1    1614     641    1615     646
CTETRA      8804       1    1251    1252     667    1031
CTETRA      8805       1    3072    1246    1031    1107
CTETRA      8806       1    1303    2387    2396    1162
CTETRA      8807       1     197     860     646     863
CTETRA      8808       1    3278    2918    1607    1609
CTETRA      8809       1     898     389    1129      86
CTETRA      8810       1    1612     739     942     738
CTETRA      8811       1    2936    1606    1039     824
CTETRA      8812       1    3588    3985    3180    1507
CTETRA      8813       1    1606    1039     824      23
CTETRA      8814       1     941     824    1039    1174
CTETRA      8815       1    3588    3589    1750     712
CTETRA      8816       1    3049    3969    1236     617
CTETRA      8817       1    2923    2924    1239     197
CTETRA      8818       1    3958    2763     722    1203
CTETRA      8819       1    2134    2137    2646    1161
CTETRA      8820       1    3589    1736    1751     729
CTETRA      8821       1    3590    1780    1765     862
CTETRA      8822       1    2623    2646    2645     256
CTETRA      8823       1    2764    1203    1143     912
CTETRA      8824       1    2140    2144    2143     256
CTETRA      8825       1     734     912     914     923
CTETRA      8826       1     538    1203     728    1186
CTETRA      8827       1    3358    1687     879     902
CTETRA      8828       1    3358    3359    1687     902
CTETRA      8829       1    3309    3310    3449    1641
CTETRA      8830       1    1685    1688     112     901
CTETRA      8831       1    3520    2296    1139     544
CTETRA      8832       1    1805    1806    1820    1089
CTETRA      8833       1    3071    1514    1512    1107
CTETRA      8834       1    3359    3360    1685     900
CTETRA      8835       1    3200    1831    3201    1515
CTETRA      8836       1    1035     822      85     737
CTETRA      8837       1    3203    1512    1834    1513
CTETRA      8838       1     858     898     739    1136
CTETRA      8839       1     858    1118     898     821
CTETRA      8840       1    1241    1242      85     821
CTETRA      8841       1    3305    2949    2948    1087
CTETRA      8842       1    1764    1765     899     712
CTETRA      8843       1     858      85     822     737
CTETRA      8844       1    1779     859     858     899
CTETRA      8845       1    2569    2573    2570     194
CTETRA      8846       1    1814    1828    1071    1024
CTETRA      8847       1    1942     605    1552    1055
CTETRA      8848       1    3096    1554     603     605
CTETRA      8849       1    3077    1263    3078     209
CTETRA      8850       1     345    1187     342    1128
CTETRA      8851       1    1944     604    1554     605
CTETRA      8852       1    1303    1162    2396     983
CTETRA      8853       1    3227    1552    1943    1554
CTETRA      8854       1    2562    1182    2571    1202
CTETRA      8855       1    3291    1618    1616    1076
CTETRA      8856       1    1799    1814    1813    1071
CTETRA      8857       1    2118    2571    1182    1202
CTETRA      8858       1    2464    2468    1182    1202
CTETRA      8859       1    2454    2462    1202    1155
CTETRA      8860       1    3078    1263    1264     209
CTETRA      8861       1    2454    2462    2455    1202
CTETRA      8862       1    3837    2134    2137    2646
CTETRA      8863       1    2118    1182    2129    1202
CTETRA      8864       1    2129    1182    2468    1202
CTETRA      8865       1    2125    2126    1202    1155
CTETRA      8866       1    2126    2561    1202    1155
CTETRA      8867       1    3750    1272    3751    2573
CTETRA      8868       1    2465    2473    1182     681
CTETRA      8869       1    1306    2565    2554      65
CTETRA      8870       1    2125    2129    2455    1202
CTETRA      8871       1    1290    2436    2350     341
CTETRA      8872       1     761     827     608     611
CTETRA      8873       1     826     607     673     190
CTETRA      8874       1     826     673     527     190
CTETRA      8875       1    1907     761     826     827
CTETRA      8876       1      32    1037    1178      35
CTETRA      8877       1    3131    1451    1020    1040
CTETRA      8878       1    2013     735    2028     103
CTETRA      8879       1    1294    1300    2387    1162
CTETRA      8880       1    1183     886      88    1135
CTETRA      8881       1    3019    3692    3693     570
CTETRA      8882       1    1149     745     886      84
CTETRA      8883       1    1637    1638     885     745
CTETRA      8884       1    3332    3486    3485     885
CTETRA      8885       1    3312    1638    1149      82
CTETRA      8886       1    1638    1149      33     745
CTETRA      8887       1     973     745      35     741
CTETRA      8888       1    2387    2411    2410    1162
CTETRA      8889       1    3333     973    1636     745
CTETRA      8890       1    2408    2410    2411     287
CTETRA      8891       1    3520    2295    2296     544
CTETRA      8892       1    3657    3658    1302    2397
CTETRA      8893       1    1919     242     502     565
CTETRA      8894       1     242    1207     502     565
CTETRA      8895       1    3654    1300    1299    2407
CTETRA      8896       1    3390    3520    1139     544
CTETRA      8897       1    1934     502    1550     565
CTETRA      8898       1    1211    1153     462    1152
CTETRA      8899       1    1318    1319    1320     105
CTETRA      8900       1    1934    1550    1548     565
CTETRA      8901       1    3445     841    1646     767
CTETRA      8902       1     764     841     765     767
CTETRA      8903       1    2627    2634    2633     830
CTETRA      8904       1    3610    2100    2091    2423
CTETRA      8905       1     499     530     501     495
CTETRA      8906       1     698     529     767     501
CTETRA      8907       1    1646     529     190     767
CTETRA      8908       1    2337     927     368     411
CTETRA      8909       1    3172     410     846     847
CTETRA      8910       1    2815    2816    2843     814
CTETRA      8911       1    3172    2331    2333     410
CTETRA      8912       1    3776    2667    1363    2669
CTETRA      8913       1    3777    1363    1360    2669
CTETRA      8914       1     366     504     908     367
CTETRA      8915       1    1720     368     413     372
CTETRA      8916       1     505       7     908     296
CTETRA      8917       1    3157     850     323     367
CTETRA      8918       1     321     906     514     329
CTETRA      8919       1     846     330     252     752
CTETRA      8920       1     558     908     310     302
CTETRA      8921       1    1335    1387    1386     828
CTETRA      8922       1     857     787     210     788
CTETRA      8923       1    3901    1390    2762    1099
CTETRA      8924       1    2926    1080     641     572
CTETRA      8925       1    2617     623     929     829
CTETRA      8926       1    1341    1342    1345     830
CTETRA      8927       1    2926     641    1265     572
CTETRA      8928       1     786     788     646     789
CTETRA      8929       1    3092    1535     865     868
CTETRA      8930       1    1409    2723    2724     416
CTETRA      8931       1    2719    2722    1205     416
CTETRA      8932       1     891     376    1112     818
CTETRA      8933       1    3089    1135    2241     178
CTETRA      8934       1    2243    1183     229     178
CTETRA      8935       1    2243     229     228     176
CTETRA      8936       1    1413     418    1417     415
CTETRA      8937       1    1409    1413    1412     416
CTETRA      8938       1    1867     175     730     177
CTETRA      8939       1    1302    2396    2397     983
CTETRA      8940       1    1425    1426    1429     634
CTETRA      8941       1    1852    1536    1853     177
CTETRA      8942       1    3795    1409    1412    2723
CTETRA      8943       1    3793    2720    1403     417
CTETRA      8944       1    1882     730     175     817
CTETRA      8945       1     793     376     557     794
CTETRA      8946       1     553     554     556     784
CTETRA      8947       1    2670    2683    2671    1205
CTETRA      8948       1    1987    1988     480     140
CTETRA      8949       1    1973      72    1974     140
CTETRA      8950       1    1975    1990     140     141
CTETRA      8951       1    2003     135     480     140
CTETRA      8952       1    1974      72    1975     140
CTETRA      8953       1    3580      68    1946     141
CTETRA      8954       1    1961      66    1976     141
CTETRA      8955       1    3443     200    3760     699
CTETRA      8956       1    2691    2692    2702     636
CTETRA      8957       1    3605    3606    2094    2359
CTETRA      8958       1    3105    2286    2287    1058
CTETRA      8959       1    2016    1033     135     735
CTETRA      8960       1    1655     148    1064     149
CTETRA      8961       1      52     887     374     232
CTETRA      8962       1     308     980     309     375
CTETRA      8963       1     778     593    1133    1134
CTETRA      8964       1    3148    1016     448    1088
CTETRA      8965       1    2974    1693    3355     238
CTETRA      8966       1    3037    3038    1482    1132
CTETRA      8967       1    3544    3545    2322     968
CTETRA      8968       1     148     883    1091     150
CTETRA      8969       1    1659      94    1662     883
CTETRA      8970       1    1655     148     149     115
CTETRA      8971       1    3145    1569    1557     308
CTETRA      8972       1    3120    1463    1465     114
CTETRA      8973       1     427     396     432     394
CTETRA      8974       1    2972    1455      99     100
CTETRA      8975       1    3690     406     397    1185
CTETRA      8976       1    1659    1660     148    1091
CTETRA      8977       1    3120    1661    1656     114
CTETRA      8978       1    1478     548     396     393
CTETRA      8979       1     956     566     919     152
CTETRA      8980       1     548     877     109     275
CTETRA      8981       1    1451    1454    1017    1048
CTETRA      8982       1     364    1025     566     152
CTETRA      8983       1       8      70     153      10
CTETRA      8984       1    3131     106    1651    1040
CTETRA      8985       1    2997    1020    1017    1019
CTETRA      8986       1    2998    2999    1020     401
CTETRA      8987       1    3148    1492    1491    1016
CTETRA      8988       1    2997    1020    1451    1017
CTETRA      8989       1    3517    3518    2292     286
CTETRA      8990       1    1020     106    1040     108
CTETRA      8991       1    3205    1509    1836    1521
CTETRA      8992       1    1631     867    1632     376
CTETRA      8993       1     943     800     803    1146
CTETRA      8994       1     805     803     800     795
CTETRA      8995       1    1914     805    1915     800
CTETRA      8996       1    1915     800     943      79
CTETRA      8997       1    1930     604     800     482
CTETRA      8998       1     800     798     604     795
CTETRA      8999       1     891      28     943     803
CTETRA      9000       1     516     491     893    1124
CTETRA      9001       1    3485    1637     885     745
CTETRA      9002       1     488     487     489     485
CTETRA      9003       1    2239    2246     488     518
CTETRA      9004       1    3436    2239     488     518
CTETRA      9005       1     488     625     518     921
CTETRA      9006       1     529     527     190     501
CTETRA      9007       1    2256     809      82     811
CTETRA      9008       1    2342    2347    2343    1137
CTETRA      9009       1    3404    1628     489     491
CTETRA      9010       1    1861    1862    1876     716
CTETRA      9011       1    3250    1949    3251     113
CTETRA      9012       1     961    1196    1153    1209
CTETRA      9013       1     467     961    1153    1209
CTETRA      9014       1     462     460    1153    1210
CTETRA      9015       1    3006    3362    1682     370
CTETRA      9016       1    1153    1210     460     461
CTETRA      9017       1    2013    2014    2029     735
CTETRA      9018       1    2033    2049    2048     456
CTETRA      9019       1    2047    2063    2062     463
CTETRA      9020       1    2342    2402     466     460
CTETRA      9021       1    1586    1138     568    1177
CTETRA      9022       1    3540    3541    2319    1007
CTETRA      9023       1    2045    2061    2060    1134
CTETRA      9024       1    2047    2048     456     931
CTETRA      9025       1     465    1152    1154    1209
CTETRA      9026       1    3261    2057    3262     778
CTETRA      9027       1    3257    2053    3258     594
CTETRA      9028       1    2007    2023    2022     677
CTETRA      9029       1    2019    2035    2034     678
CTETRA      9030       1    3150    2300    2302    1184
CTETRA      9031       1    3492    2311    2305     367
CTETRA      9032       1    2008    2009    2024     679
CTETRA      9033       1    3177    1677    1678     999
CTETRA      9034       1    2401    2406    2402     466
CTETRA      9035       1    2022    2038    2037     679
CTETRA      9036       1    3529    3530    2306     322
CTETRA      9037       1    3174    2334    2335     257
CTETRA      9038       1    2401     466    2402    1154
CTETRA      9039       1    2159     869     976     839
CTETRA      9040       1    2643    1003     781     211
CTETRA      9041       1    2823     213     219     218
CTETRA      9042       1    2819    2853     212     311
CTETRA      9043       1    2637     219     211     213
CTETRA      9044       1    2822    1108    2823     218
CTETRA      9045       1    2638    1108    2639     218
CTETRA      9046       1    2639     840    1108     869
CTETRA      9047       1    1792     945    1807     941
CTETRA      9048       1    3278    2916    3279    1607
CTETRA      9049       1    1224    1009      91     775
CTETRA      9050       1    2931    2932    1257     196
CTETRA      9051       1    1900     805     891     943
CTETRA      9052       1    2894    3645    2895     933
CTETRA      9053       1    2909      91    1224    1009
CTETRA      9054       1    1008    1009      91      92
CTETRA      9055       1    1597      92    1216     129
CTETRA      9056       1    1008     774    1009     128
CTETRA      9057       1    3114    1098     875     694
CTETRA      9058       1    1984    1999    1998    1109
CTETRA      9059       1    2752    2763    2776     728
CTETRA      9060       1     637     638    1145     727
CTETRA      9061       1    3024    1709    1106     592
CTETRA      9062       1    3388    1728    1730     284
CTETRA      9063       1    1986     480    1033     479
CTETRA      9064       1    1469    1475    1002     592
CTETRA      9065       1    3089    1525      89      90
CTETRA      9066       1    3022    1181    3116     874
CTETRA      9067       1    3402    2081    2085     261
CTETRA      9068       1    3023    3116    3364     592
CTETRA      9069       1     717     856     811     808
CTETRA      9070       1    3313    1638    1637    1149
CTETRA      9071       1    3115    3116    1181     874
CTETRA      9072       1    3023     874    3116     592
CTETRA      9073       1    3312    1639    1638      82
CTETRA      9074       1    3313    3314    3414    1637
CTETRA      9075       1    3312    3411    1639      82
CTETRA      9076       1    1150      33      83      84
CTETRA      9077       1    1638    1149      82      33
CTETRA      9078       1      82      83     811     807
CTETRA      9079       1    1639      33      82     762
CTETRA      9080       1    3411    2256     809      82
CTETRA      9081       1    2943    1212    1171     127
CTETRA      9082       1    1249    1171    1212     996
CTETRA      9083       1    2943    1212    1249    1171
CTETRA      9084       1    1250     790    1171     996
CTETRA      9085       1    2942    1250     790    1171
CTETRA      9086       1    1926     555    1927    1055
CTETRA      9087       1    3677    3678    1310    2446
CTETRA      9088       1     200     201     618     202
CTETRA      9089       1    3326    1642    1645     529
CTETRA      9090       1     784     817     376     703
CTETRA      9091       1     557     554     556     882
CTETRA      9092       1     704     556     555     713
CTETRA      9093       1    3480    2269     557     556
CTETRA      9094       1    3037    1482    1483    1132
CTETRA      9095       1    1761    1776    1013     389
CTETRA      9096       1    1778    1136    1793      29
CTETRA      9097       1    1648    1660    1653    1091
CTETRA      9098       1     710      75     918      59
CTETRA      9099       1    2323    2327     180     172
CTETRA      9100       1    2001     480    2016    1033
CTETRA      9101       1    1729    1731     515     268
CTETRA      9102       1     941      24      29    1174
CTETRA      9103       1    3117    3496    3495     365
CTETRA      9104       1    2936    1039     205     824
CTETRA      9105       1    1603      21      22      23
CTETRA      9106       1    3860    3861    1735    1007
CTETRA      9107       1    3260    1159    1575     304
CTETRA      9108       1    1777     389      29      24
CTETRA      9109       1    3864    3534    1727     513
CTETRA      9110       1    3548    3549    2328     168
CTETRA      9111       1    1792     941    1806      24
CTETRA      9112       1    1776    1791    1090      24
CTETRA      9113       1    3074     665     336    1198
CTETRA      9114       1    1816    1830    1198     668
CTETRA      9115       1    3007     414    1460     151
CTETRA      9116       1    3004    3362    3005     370
CTETRA      9117       1    3074     336    1518    1198
CTETRA      9118       1    3397    1718    3398     849
CTETRA      9119       1    1815     669    1816    1198
CTETRA      9120       1    3171    2336    2337     411
CTETRA      9121       1    3008     186    3009     131
CTETRA      9122       1     755     669     596     597
CTETRA      9123       1    2942     790    1600    1171
CTETRA      9124       1    3137    1564    1565    1061
CTETRA      9125       1    3302    1171    1600     127
CTETRA      9126       1    1982    1997    1996     102
CTETRA      9127       1    3005    3006    1462     370
CTETRA      9128       1    3010    1681    3381     911
CTETRA      9129       1    2944    2945    1212     127
CTETRA      9130       1    2972    3356    2973     100
CTETRA      9131       1    1693    1694    1696     239
CTETRA      9132       1     236     116     118      97
CTETRA      9133       1    2943    2944    1212     127
CTETRA      9134       1    3302    2944    2943     127
CTETRA      9135       1    1647     960     316     317
CTETRA      9136       1    1997     337    2011     102
CTETRA      9137       1    1708    1106    1709     873
CTETRA      9138       1    2976    1695    3354     233
CTETRA      9139       1    3347    1707     851     852
CTETRA      9140       1    1450    1047     317     851
CTETRA      9141       1    3372    1698    3373    1132
CTETRA      9142       1    1689    1692      99     116
CTETRA      9143       1    3039    3373    1170    1132
CTETRA      9144       1    1402    2783    1094    1034
CTETRA      9145       1    3127    1445     853     314
CTETRA      9146       1    2986    3348    2987     318
CTETRA      9147       1    2990    2991    1450     851
CTETRA      9148       1    3022    3116    3023     874
CTETRA      9149       1    3127     314     853     317
CTETRA      9150       1    1964      66     113      73
CTETRA      9151       1    1252    1086     667    1031
CTETRA      9152       1    2993    1098    1443    1046
CTETRA      9153       1    2947    1083    1590    1087
CTETRA      9154       1    2989    3346    2990     851
CTETRA      9155       1     662    1086    1087    1082
CTETRA      9156       1    1590    1083     577    1087
CTETRA      9157       1    2991    3345    2992    1063
CTETRA      9158       1    3024    3364    3365    1709
CTETRA      9159       1     662     667     663    1087
CTETRA      9160       1    2227    2228    2231     763
CTETRA      9161       1    3818    2232    2229    1188
CTETRA      9162       1     981     231     978     222
CTETRA      9163       1    3818    2605    2232    1188
CTETRA      9164       1    3862    1731    1733     267
CTETRA      9165       1    3264    1573    1577    1044
CTETRA      9166       1    3767     533     538     484
CTETRA      9167       1    2751    2776    2770     763
CTETRA      9168       1    2605    1186    2606     533
CTETRA      9169       1    2231    1188    2235     533
CTETRA      9170       1     722    1203     538     725
CTETRA      9171       1     756     583      18     757
CTETRA      9172       1     331     335     332     166
CTETRA      9173       1     628     538     724     725
CTETRA      9174       1    1774    1789    1788    1081
CTETRA      9175       1    3764     629     723     562
CTETRA      9176       1    1221     582    1216    1059
CTETRA      9177       1    3151    2303    2292     568
CTETRA      9178       1    1601      22      91     776
CTETRA      9179       1    3438     631     486     627
CTETRA      9180       1    1807    1822    1821     941
CTETRA      9181       1    1807    1823    1822     945
CTETRA      9182       1    3764     629    3765     723
CTETRA      9183       1    1607    1610    1609      86
CTETRA      9184       1    1793    1808    1807     945
CTETRA      9185       1    1792    1793     945      29
CTETRA      9186       1    1809    1825    1824     210
CTETRA      9187       1    3766    2606     628     538
CTETRA      9188       1    1130    1143    1203     725
CTETRA      9189       1    2606     628     538     724
CTETRA      9190       1    3766     628     630     538
CTETRA      9191       1     820     819    1070     209
CTETRA      9192       1    3458     975    3962     429
CTETRA      9193       1    1264    1127    1213     209
CTETRA      9194       1    3594    1811    1826     208
CTETRA      9195       1    1812    1827    1826    1070
CTETRA      9196       1    1122    1071     344    1128
CTETRA      9197       1    3112     698     616     700
CTETRA      9198       1    3456     975    3457     854
CTETRA      9199       1    3962     429     975     977
CTETRA      9200       1    1794    1795    1810    1052
CTETRA      9201       1    3193    1503    1749    1506
CTETRA      9202       1    3295     204    1613     195
CTETRA      9203       1    3592     857     786     787
CTETRA      9204       1    2357     423    2441     433
CTETRA      9205       1    2094     423    2357     433
CTETRA      9206       1    2885     866    1616    1077
CTETRA      9207       1    2357    2441    2425     433
CTETRA      9208       1    3219    1846    1527    1530
CTETRA      9209       1    1921     500     502     496
CTETRA      9210       1    2431     423     445     433
CTETRA      9211       1     826     827     190     501
CTETRA      9212       1    3217    1847    3218    1531
CTETRA      9213       1    3453     527     673     190
CTETRA      9214       1    1543     502     500     494
CTETRA      9215       1    3084    2252    2258     771
CTETRA      9216       1    3453    2285     673     527
CTETRA      9217       1    1896    1897    1911     553
CTETRA      9218       1    1937     825    1938     606
CTETRA      9219       1    2285     673     527     528
CTETRA      9220       1    3334    1635    1636     704
CTETRA      9221       1    3399    1721    1719     476
CTETRA      9222       1    1894    1895    1909     744
CTETRA      9223       1     553     555     704     556
CTETRA      9224       1    3459    2287    2286     241
CTETRA      9225       1    3859    3543    3542     966
CTETRA      9226       1    3576    3577    1900     943
CTETRA      9227       1     499     495     501     496
CTETRA      9228       1    3455     493    2278     495
CTETRA      9229       1    3094    2276     798     993
CTETRA      9230       1    1215     373      47     301
CTETRA      9231       1    1916      79    1215     373
CTETRA      9232       1    3234    1936    1937    1547
CTETRA      9233       1    1920    1935    1934     502
CTETRA      9234       1    3105    1550    1207     565
CTETRA      9235       1    3108     373    1556     301
CTETRA      9236       1    3112     616    1440     700
CTETRA      9237       1      48     993      79    1146
CTETRA      9238       1    3108    3972    1556     373
CTETRA      9239       1     607     608     827     611
CTETRA      9240       1    2707    2717    1065     442
CTETRA      9241       1    1922    1923    1937     825
CTETRA      9242       1    3436    3437    2262     486
CTETRA      9243       1    2281     609     607     606
CTETRA      9244       1    1916    1917    1931     301
CTETRA      9245       1    3986    1826    3195    1524
CTETRA      9246       1     486     488     487     626
CTETRA      9247       1    1573    1119     909    1044
CTETRA      9248       1    1924    1938     825     610
CTETRA      9249       1    3492    3493    2311     476
CTETRA      9250       1    3447    3448    2259     766
CTETRA      9251       1    3041    3042    1485     371
CTETRA      9252       1    3790    1397    2708     442
CTETRA      9253       1    1987    2002    2001     480
CTETRA      9254       1    1909    1038    1037     825
CTETRA      9255       1    3790    2708    2715     442
CTETRA      9256       1     825     610     606     611
CTETRA      9257       1    1922    1937     826     825
CTETRA      9258       1     370     134     130     132
CTETRA      9259       1    1982    1983    1997    1109
CTETRA      9260       1    1965    1966    1980      73
CTETRA      9261       1    1642    1644    1643     190
CTETRA      9262       1    2037    2038    2053     545
CTETRA      9263       1     130     137     275     193
CTETRA      9264       1    1391    1394    2715     442
CTETRA      9265       1    3164     280    1574     281
CTETRA      9266       1    3857    3546    1176     438
CTETRA      9267       1    3163    3164    1574     281
CTETRA      9268       1    2267     556     704     713
CTETRA      9269       1    2025    2026    2041     101
CTETRA      9270       1     274    1105    1061     193
CTETRA      9271       1    3261    2056    2057     593
CTETRA      9272       1    3562    3879    3878     277
CTETRA      9273       1    1655     115     149     379
CTETRA      9274       1    2040    2056    2055     593
CTETRA      9275       1    2041    2057    2056     593
CTETRA      9276       1    2695     621     619     732
CTETRA      9277       1    1988    1989    2004     140
CTETRA      9278       1    3392    3523    3522     520
CTETRA      9279       1     977     732     804     202
CTETRA      9280       1    2741     804     977     400
CTETRA      9281       1    2063     456     454     463
CTETRA      9282       1    2742     804    2766     801
CTETRA      9283       1    1681     911     186     147
CTETRA      9284       1    1998    1999    2014     337
CTETRA      9285       1    1686     132     182     901
CTETRA      9286       1     370     147     151     132
CTETRA      9287       1    2267     704    2268    1191
CTETRA      9288       1    3159    1159    1579     366
CTETRA      9289       1    2043    2044    2059    1133
CTETRA      9290       1    1679     414     132     901
CTETRA      9291       1     109     384     363     383
CTETRA      9292       1    3264    2060    3265     463
CTETRA      9293       1    1340    1026    1341    1027
CTETRA      9294       1    1680     186     182     132
CTETRA      9295       1    1680    1681     186     147
CTETRA      9296       1    2791    2792    1065    1032
CTETRA      9297       1    2404    2405    2413    1096
CTETRA      9298       1    2383    2384    1097     265
CTETRA      9299       1    2383    2414    2416     537
CTETRA      9300       1    3715    2072    3716    2526
CTETRA      9301       1    2760    2876    1066    1214
CTETRA      9302       1    2542    2543    1210     350
CTETRA      9303       1    3722    2081    3732    2498
CTETRA      9304       1    1516    1024    1126     819
CTETRA      9305       1    2759    1103    2875    1030
CTETRA      9306       1    2550    1151     462    1210
CTETRA      9307       1    1187     260     964     360
CTETRA      9308       1    2704    2709    1103    1068
CTETRA      9309       1    2087    2537     459     543
CTETRA      9310       1    2705    1041    2732    1103
CTETRA      9311       1    1906    1907    1921     826
CTETRA      9312       1    1846    1527    1530     771
CTETRA      9313       1     764     765     716     767
CTETRA      9314       1    2963    1619    2964    1075
CTETRA      9315       1    3084     770    2252     771
CTETRA      9316       1    3721    2080    2081    2498
CTETRA      9317       1    2252     841     765     770
CTETRA      9318       1    3445    2252     841     765
CTETRA      9319       1    2096    2357    2425     433
CTETRA      9320       1    2252     765    2258     771
CTETRA      9321       1    2994    1098    3604     694
CTETRA      9322       1     168     438     170     999
CTETRA      9323       1    3345    1063    1711    1046
CTETRA      9324       1     870     875     872    1046
CTETRA      9325       1     874     592     215     872
CTETRA      9326       1    1165     567     559     875
CTETRA      9327       1    2068     263    2521     475
CTETRA      9328       1    2366    2367    2383      80
CTETRA      9329       1    2107    2378    2366      81
CTETRA      9330       1    2101    2102     690     642
CTETRA      9331       1    3115    1001    1288     694
CTETRA      9332       1    2526    2538    1097    1172
CTETRA      9333       1    1098     907     875     694
CTETRA      9334       1    3253    3254     274      67
CTETRA      9335       1    1105     198     188     193
CTETRA      9336       1    3631    2107    2108    2378
CTETRA      9337       1      15      43     362       9
CTETRA      9338       1    1016     451     183     133
CTETRA      9339       1    2130    2561    2571    1202
CTETRA      9340       1    3704    2118    2130    2571
CTETRA      9341       1     448     449     451     133
CTETRA      9342       1    2455    2468    2464    1202
CTETRA      9343       1    2118    2130    2571    1202
CTETRA      9344       1    2465    2471    2466     470
CTETRA      9345       1     274     145      67     275
CTETRA      9346       1    2119    2468    2129    1182
CTETRA      9347       1     363      14      10      20
CTETRA      9348       1     148    1091     316     155
CTETRA      9349       1    2688    2689    2701     525
CTETRA      9350       1    2418     420    2429     675
CTETRA      9351       1    3617    3618    2129    2468
CTETRA      9352       1    2119    2124    2123    1182
CTETRA      9353       1     982     985     338     340
CTETRA      9354       1    2121    2123    2124     470
CTETRA      9355       1    2566    2571    2572    1182
CTETRA      9356       1    1993    1994    2008     677
CTETRA      9357       1    2578    2590     674    1114
CTETRA      9358       1    2585     386     675     580
CTETRA      9359       1    3942    3943    2145    2857
CTETRA      9360       1    2577    2590     420     674
CTETRA      9361       1    2429     420    2438     674
CTETRA      9362       1     554     713     605    1055
CTETRA      9363       1    2820    2822    2828     839
CTETRA      9364       1    1897    1912     553     816
CTETRA      9365       1    1927     605    1942    1055
CTETRA      9366       1    2160     311    2855     976
CTETRA      9367       1    3947    2157    2854    2855
CTETRA      9368       1    1927     554    1928     605
CTETRA      9369       1    2852    2853    2859    1158
CTETRA      9370       1    1914     805     800     604
CTETRA      9371       1    2143    2652     256     880
CTETRA      9372       1    2156    2157    2160     311
CTETRA      9373       1    3559    3881     508     991
CTETRA      9374       1    3849    2173    3850    2609
CTETRA      9375       1     708     603     604     605
CTETRA      9376       1     793     557     882     794
CTETRA      9377       1    2064    2065     454     457
CTETRA      9378       1     554     882     708     605
CTETRA      9379       1    1914    1929     708     604
CTETRA      9380       1    2269     882     556     713
CTETRA      9381       1     793     794     603     795
CTETRA      9382       1    3013    3014    1468     432
CTETRA      9383       1    1912     816    1913     554
CTETRA      9384       1    3807     714     478     791
CTETRA      9385       1    3503    3807     714     478
CTETRA      9386       1    3806     714    3807     791
CTETRA      9387       1    3504     714     492      63
CTETRA      9388       1    3504     714    3805     282
CTETRA      9389       1    3832    2187    3833    2703
CTETRA      9390       1     478     279      57      63
CTETRA      9391       1    2703    1068    2704    1120
CTETRA      9392       1    2704    2734    2735    1120
CTETRA      9393       1    2212    2216    2215     167
CTETRA      9394       1     714      57     492      63
CTETRA      9395       1    3504      64    2314      63
CTETRA      9396       1     714     478     791      57
CTETRA      9397       1    1926    1941    1940     746
CTETRA      9398       1    3098    1553     713    1055
CTETRA      9399       1    2219     526     834     167
CTETRA      9400       1    3172     846    1666     847
CTETRA      9401       1     310     908     296     302
CTETRA      9402       1    1665     753    1676     749
CTETRA      9403       1    2210    2214    2213     731
CTETRA      9404       1     753     847     846     752
CTETRA      9405       1    1942    1552    1553    1055
CTETRA      9406       1     328     330     752     324
CTETRA      9407       1    3099     122    2283    1178
CTETRA      9408       1    2209    2810     306     731
CTETRA      9409       1    1186     734     912     914
CTETRA      9410       1    3451    3452    2285     673
CTETRA      9411       1    2604    2605    2606     533
CTETRA      9412       1    1666    1668     753     846
CTETRA      9413       1    1665    1666     753     847
CTETRA      9414       1    3404    3405    2237     484
CTETRA      9415       1    3000    3001    1453     382
CTETRA      9416       1    3341    3469    1622     925
CTETRA      9417       1    2231    1186     728    1053
CTETRA      9418       1    2232    2605    2235    1188
CTETRA      9419       1    2231    1186     533     542
CTETRA      9420       1    3322    1629    1623    1189
CTETRA      9421       1    3021    1165    3695    1181
CTETRA      9422       1     722     728     538    1203
CTETRA      9423       1    1460     414     370     151
CTETRA      9424       1    3967     414    1679     900
CTETRA      9425       1    2967     414    3967     900
CTETRA      9426       1      67     139      12     137
CTETRA      9427       1     900     134     879     114
CTETRA      9428       1    3981    1464    1463     414
CTETRA      9429       1    3471    2274    2275     993
CTETRA      9430       1    1899    1915    1914     805
CTETRA      9431       1    1656     115     379     114
CTETRA      9432       1    2967    2968     414     900
CTETRA      9433       1     115     134     379     114
CTETRA      9434       1    3578      79     373     482
CTETRA      9435       1    3471    3472    2274     881
CTETRA      9436       1    1461     385     379     387
CTETRA      9437       1    3605    2359    2094     424
CTETRA      9438       1     432     191     192     877
CTETRA      9439       1    3428    3429    1190    1189
CTETRA      9440       1    3470    3471    2275     925
CTETRA      9441       1    3430     905    1125    1189
CTETRA      9442       1    3469     925    2275      48
CTETRA      9443       1    3331    1639    3488      33
CTETRA      9444       1    3003    1461    1442     385
CTETRA      9445       1     670     398     423     425
CTETRA      9446       1    3002    3595    3408     671
CTETRA      9447       1    3990    1587    3269      45
CTETRA      9448       1    3001    3595    3002     671
CTETRA      9449       1    3983    2297    2301     280
CTETRA      9450       1    2968    2969     879     902
CTETRA      9451       1    3167     844    1663     971
CTETRA      9452       1     911     188     191     878
CTETRA      9453       1    3007    1679    3967     414
CTETRA      9454       1    1061     877     548     275
CTETRA      9455       1    1025     109     152     363
CTETRA      9456       1    2629     813     815    1028
CTETRA      9457       1    3155    3156    1577     321
CTETRA      9458       1    3535    1729     515     513
CTETRA      9459       1    3863    3535    1729     515
CTETRA      9460       1    3534     963    1727     513
CTETRA      9461       1    3158     366    1578     367
CTETRA      9462       1    3260    3261     310     305
CTETRA      9463       1    3528    2308     906     514
CTETRA      9464       1    2629     815    2635    1028
CTETRA      9465       1    2634     930    1028     830
CTETRA      9466       1    3176    3177    1678     969
CTETRA      9467       1    3782    1345    2634    1028
CTETRA      9468       1    1674    1676    1675     832
CTETRA      9469       1    1586     434     568    1138
CTETRA      9470       1    3991    3401    3640    3650
CTETRA      9471       1    3782    2634    2635    1028
CTETRA      9472       1    3590    1751    1766     861
CTETRA      9473       1    2430     392     420     580
CTETRA      9474       1    3665    1328    1332    2360
CTETRA      9475       1     406     397    1185     399
CTETRA      9476       1    1074     446    1117    1073
CTETRA      9477       1    3689    2495     397    1164
CTETRA      9478       1    1018     407     446     399
CTETRA      9479       1    3645    3646    2406     466
CTETRA      9480       1    2075    2076    2087    1172
CTETRA      9481       1    1185     974     445     399
CTETRA      9482       1    2385    2388    2394     266
CTETRA      9483       1    2546     962    1153    1196
CTETRA      9484       1      38    1151     349     645
CTETRA      9485       1     259     260    1187     261
CTETRA      9486       1    2495    1185     397     974
CTETRA      9487       1    1968    1969    1109      74
CTETRA      9488       1    1963     113    1964      66
CTETRA      9489       1    2894    3646    3645     933
CTETRA      9490       1    1946      66    1961     141
CTETRA      9491       1    3647    2347    2342     357
CTETRA      9492       1      16      20      10      11
CTETRA      9493       1    3230    1940    1941    1541
CTETRA      9494       1    2071    2416    2414     537
CTETRA      9495       1    3408    3605    2094     424
CTETRA      9496       1    1994     102    2009     144
CTETRA      9497       1    1948     113    1963      66
CTETRA      9498       1    3001    3002    1442     385
CTETRA      9499       1    3633    2414    2071    2416
CTETRA      9500       1     113      66     141      73
CTETRA      9501       1    1928    1943    1942     605
CTETRA      9502       1    2889     346     355     348
CTETRA      9503       1     458     459     461     543
CTETRA      9504       1    2889     346    1237     355
CTETRA      9505       1    2420    2427    2421     720
CTETRA      9506       1    2887    2888     355     348
CTETRA      9507       1    1237     617     355     512
CTETRA      9508       1    3451    2285    2279     673
CTETRA      9509       1    2638    2665     219     218
CTETRA      9510       1    2829     928    2834     219
CTETRA      9511       1    2834     928     403     219
CTETRA      9512       1    2823     219    2834     218
CTETRA      9513       1    2107      81      80     263
CTETRA      9514       1    3633    3634    2071    2414
CTETRA      9515       1    2070    2071    2073     537
CTETRA      9516       1    1020    1017    1019     108
CTETRA      9517       1    2817     781    1003     211
CTETRA      9518       1    1574    1588      76     280
CTETRA      9519       1    2203    2204    2207     179
CTETRA      9520       1    3256    1581      76      53
CTETRA      9521       1    3327    3453    3452     190
CTETRA      9522       1    1271    1272    2573     194
CTETRA      9523       1    3256    3257    1581      53
CTETRA      9524       1    1574      76    1581      87
CTETRA      9525       1      46     280     440      77
CTETRA      9526       1    3255    3256      76      46
CTETRA      9527       1    1277    2436    1280     341
CTETRA      9528       1    3681    2436    1277    2447
CTETRA      9529       1    2435    2436    2448     341
CTETRA      9530       1    3596     670    3597     423
CTETRA      9531       1    1292    2588    2580     339
CTETRA      9532       1      76      78      53      56
CTETRA      9533       1    3408    3995    3605    3595
CTETRA      9534       1    2999     670    3000     382
CTETRA      9535       1    2502    2503    2551    1155
CTETRA      9536       1    3062    1503     821     822
CTETRA      9537       1    2128    2462    2463    1155
CTETRA      9538       1    2502    2551    2561    1155
CTETRA      9539       1    1794     859    1052    1136
CTETRA      9540       1    3619    3620    2125    2462
CTETRA      9541       1    1746      61    1761    1014
CTETRA      9542       1     898    1136      29      86
CTETRA      9543       1    2092     419     421     422
CTETRA      9544       1    2098    2121    2584     386
CTETRA      9545       1    1647    1648     316     960
CTETRA      9546       1    3728    1211    2549     462
CTETRA      9547       1    2465     470    2474     681
CTETRA      9548       1    2547     462    1153    1210
CTETRA      9549       1     462    1153    1154    1152
CTETRA      9550       1    2123    2471    2467    1182
CTETRA      9551       1    3728     331    1211     462
CTETRA      9552       1     669     660     585     661
CTETRA      9553       1    1169     664    1101     600
CTETRA      9554       1    1169     332     601     600
CTETRA      9555       1    2551    2562    1202     676
CTETRA      9556       1    2503    2515    2504     688
CTETRA      9557       1    2567    2572    2575     681
CTETRA      9558       1    2567    2585    2584     386
CTETRA      9559       1    2566    2572    2567     470
CTETRA      9560       1    3626    2116    2380    2381
CTETRA      9561       1     160    1208     939     161
CTETRA      9562       1    3110     659     663     584
CTETRA      9563       1    2110    2116     690     534
CTETRA      9564       1     756     940     659     162
CTETRA      9565       1    3327    1644    1642     190
CTETRA      9566       1    3267    1180    1138    1177
CTETRA      9567       1     312     303    1180     293
CTETRA      9568       1    2076    1096    2087    1172
CTETRA      9569       1     290       6       3       4
CTETRA      9570       1    1180    1138    1177     303
CTETRA      9571       1    2543     349    1151    1210
CTETRA      9572       1    2496    2498    2497     350
CTETRA      9573       1    2088    1096     979     543
CTETRA      9574       1    3268     312    1180     454
CTETRA      9575       1    3725     332    1169    1011
CTETRA      9576       1    3731    2497    2498     351
CTETRA      9577       1     558     910     302     293
CTETRA      9578       1    3730    2543    2497     349
CTETRA      9579       1    3265    1119    1044     910
CTETRA      9580       1    3013     432    1468     878
CTETRA      9581       1    3407    1684     876     191
CTETRA      9582       1    3747    1315    2554    2557
CTETRA      9583       1    3133    3134    1657     379
CTETRA      9584       1    3745    2555    1320    2557
CTETRA      9585       1    3452    3453    2285     673
CTETRA      9586       1    2999     401    3598     670
CTETRA      9587       1    3131    1650     106     387
CTETRA      9588       1    2793    1041     651    1194
CTETRA      9589       1    2453    2454    2472    1155
CTETRA      9590       1    2725    1194    2731    1066
CTETRA      9591       1    2126    2561    2130    1202
CTETRA      9592       1    2464    1182    2473     676
CTETRA      9593       1    2454    2463    2462    1155
CTETRA      9594       1    3694    3695    1165    1000
CTETRA      9595       1    2449     674     447    1114
CTETRA      9596       1    2759    2876    1103    1066
CTETRA      9597       1    2718    1156    2720     417
CTETRA      9598       1    2090     392    2099     580
CTETRA      9599       1    1413     418     415     416
CTETRA      9600       1    1400     442    1401    1022
CTETRA      9601       1    2421    2426    2422     187
CTETRA      9602       1    2717    2720    1156    1022
CTETRA      9603       1    3748    1307    3749    2565
CTETRA      9604       1    2802     306    1093     958
CTETRA      9605       1    2577    2583    2578     674
CTETRA      9606       1    2419    2429    2428     675
CTETRA      9607       1    2583     672     674     720
CTETRA      9608       1    2788    2793     651    1194
CTETRA      9609       1    2707    2708    2717     442
CTETRA      9610       1    2419    2474    2466     721
CTETRA      9611       1    2418    2419    2466     386
CTETRA      9612       1    2577    2585    2583     674
CTETRA      9613       1     498     499     501     496
CTETRA      9614       1    2792    2793    1194    1066
CTETRA      9615       1    3764    3765    2601     723
CTETRA      9616       1     200     428     201     203
CTETRA      9617       1    3439    3765    3764     629
CTETRA      9618       1    3764    2601    2690     723
CTETRA      9619       1    2817    1003     219     211
CTETRA      9620       1    2421    2422    2476     187
CTETRA      9621       1    2427    2444    2443     672
CTETRA      9622       1     988    1051     490    1036
CTETRA      9623       1     837     806     686     490
CTETRA      9624       1    2168    2171     532     635
CTETRA      9625       1    1356    1360    1359     781
CTETRA      9626       1    2629    2630    2635     815
CTETRA      9627       1    1359    1360    1363     781
CTETRA      9628       1    2167    2170    2660     531
CTETRA      9629       1    2819    2822    2820     839
CTETRA      9630       1    2743    2830    2832     928
CTETRA      9631       1    2819    2823    2822    1108
CTETRA      9632       1    2608     791    2653     531
CTETRA      9633       1    3807     478    3808     686
CTETRA      9634       1    2620     781    2631     812
CTETRA      9635       1    2099    2100    2423     392
CTETRA      9636       1     380     686     478     682
CTETRA      9637       1    2816     781    2817     812
CTETRA      9638       1    2171     622    2174     531
CTETRA      9639       1    2160    2855    2163     839
CTETRA      9640       1    3807     791     478     686
CTETRA      9641       1     477     697     683     220
CTETRA      9642       1    2155    2156    2159     976
CTETRA      9643       1    3868    3570    3569     368
CTETRA      9644       1    1374    1375    1378     405
CTETRA      9645       1    1372    2658    1375     928
CTETRA      9646       1    2597    2658     403     928
CTETRA      9647       1     685     686     697     682
CTETRA      9648       1    3868    3569     413     368
CTETRA      9649       1    2447     672    2448     341
CTETRA      9650       1    2656    2657    2665     403
CTETRA      9651       1    2744    2835    2830     404
CTETRA      9652       1    3868    3569    3869     413
CTETRA      9653       1    2743    2748    2744     404
CTETRA      9654       1    2830    2835    2834     928
CTETRA      9655       1    2658    2668    2666    1004
CTETRA      9656       1    1284    1285    1288    1001
CTETRA      9657       1      30     718      36      25
CTETRA      9658       1    3868     413    1720     368
CTETRA      9659       1    1269    1310    2446     194
CTETRA      9660       1    1719    1720     413     503
CTETRA      9661       1    1367    1368    1371     928
CTETRA      9662       1    3753    1278    1291    2581
CTETRA      9663       1    3171    3172    1666     411
CTETRA      9664       1    2185    2189    2188    1030
CTETRA      9665       1    1719    1723     365     503
CTETRA      9666       1     888     298     125     920
CTETRA      9667       1    3453    2284    2285     527
CTETRA      9668       1     638     511     298     920
CTETRA      9669       1     298     125     511     299
CTETRA      9670       1    3775    1366    2667    2668
CTETRA      9671       1    3776    1366    1363    2667
CTETRA      9672       1     561     920     889     921
CTETRA      9673       1    2816    2825    2817     781
CTETRA      9674       1    3749    1271    3750    2573
CTETRA      9675       1    2597     928     403     405
CTETRA      9676       1    1363    2636    2667    1004
CTETRA      9677       1    1627     123     126    1197
CTETRA      9678       1    3465    2272     300     124
CTETRA      9679       1    2213    2214    2217     526
CTETRA      9680       1    3820    2689    2226     525
CTETRA      9681       1    2186    2187    2190    1120
CTETRA      9682       1    2273     124      47     301
CTETRA      9683       1    3466      47    2273     124
CTETRA      9684       1    2272     124    2273     301
CTETRA      9685       1    3107    2272    3108     301
CTETRA      9686       1     553     555     742     741
CTETRA      9687       1    2132    1069    1111    1161
CTETRA      9688       1     553     743     740     741
CTETRA      9689       1    1897    1898     816    1112
CTETRA      9690       1    2187    1199    2703    1120
CTETRA      9691       1    2624    2626    2625     952
CTETRA      9692       1    1898    1899     816    1112
CTETRA      9693       1     557     556     554     784
CTETRA      9694       1    1406    1410    1409     416
CTETRA      9695       1    1406    1407    1410     417
CTETRA      9696       1    2801    2805    2804     835
CTETRA      9697       1    2745    2746    2835     687
CTETRA      9698       1     973     122    1191     741
CTETRA      9699       1     816    1112     376     817
CTETRA      9700       1    3876    2746    2745     271
CTETRA      9701       1    2515     535     688     536
CTETRA      9702       1    3832    2190    2187    2735
CTETRA      9703       1    2233    2234    2237     542
CTETRA      9704       1     298     242    1058     246
CTETRA      9705       1    3104    3105    1550    1207
CTETRA      9706       1    2752     722    2763     728
CTETRA      9707       1     298    1058     242     565
CTETRA      9708       1    2751    2752    2776     728
CTETRA      9709       1     628     725    1121     924
CTETRA      9710       1     890     518     625     921
CTETRA      9711       1    1411    2780     418    1022
CTETRA      9712       1    1407    1410     417     418
CTETRA      9713       1    1920     502     242     496
CTETRA      9714       1    1414    2780    2779     418
CTETRA      9715       1     245     248     249     244
CTETRA      9716       1    1408    1094    2781    1022
CTETRA      9717       1    2789    2794    2795     650
CTETRA      9718       1    3933    2194    2757     864
CTETRA      9719       1    2374    2381    2380     534
CTETRA      9720       1    2132    2135    2133    1161
CTETRA      9721       1    3907    1411    1408    2781
CTETRA      9722       1     500     495     494     496
CTETRA      9723       1     854     241    1207     243
CTETRA      9724       1    2874    2875    2876    1103
CTETRA      9725       1    3082    1534    1532    1166
CTETRA      9726       1     499     783     243     251
CTETRA      9727       1    2781    1094    2800    1022
CTETRA      9728       1    1394    1398    1397     442
CTETRA      9729       1    3440     562     563     631
CTETRA      9730       1    1892    1893    1907     761
CTETRA      9731       1     563     785    1045     564
CTETRA      9732       1    2636    2666    2667    1004
CTETRA      9733       1     428     792     770     785
CTETRA      9734       1    1874    1875     994    1045
CTETRA      9735       1    3887    1370    2743    2832
CTETRA      9736       1    2636    2637    2666    1003
CTETRA      9737       1    1369    2658    1372    1004
CTETRA      9738       1    1357    2631     781     812
CTETRA      9739       1    1860    1875    1045    1060
CTETRA      9740       1    3438     631    2261     560
CTETRA      9741       1    3497    3498    2315       6
CTETRA      9742       1    2260    2261     563    1054
CTETRA      9743       1    3566    3874    3873      26
CTETRA      9744       1     615     618     431     701
CTETRA      9745       1    3886    1370    1373    2743
CTETRA      9746       1    3503    3807    3806     714
CTETRA      9747       1    3328    1641    1644     607
CTETRA      9748       1    3761     200     201     618
CTETRA      9749       1    3440     201    3441     563
CTETRA      9750       1    3441     201     200     428
CTETRA      9751       1    2185    2188    2871    1030
CTETRA      9752       1     201     202     203     564
CTETRA      9753       1     201    1057     202     564
CTETRA      9754       1    2614    2615    2712    1069
CTETRA      9755       1     562    1163     201    1057
CTETRA      9756       1    2881    1069    1068     953
CTETRA      9757       1    2851    2856    1110    1157
CTETRA      9758       1    2622    2625    2626     952
CTETRA      9759       1    2148    2858    1158    1157
CTETRA      9760       1    1139     972     544     286
CTETRA      9761       1    2137    1110    2646    1161
CTETRA      9762       1    2873    2874    2880    1068
CTETRA      9763       1    3451     607    1644     190
CTETRA      9764       1    1732    1176     968     972
CTETRA      9765       1    2868    2869    2873    1029
CTETRA      9766       1    3858    1732    1730    1176
CTETRA      9767       1     568     970     436     286
CTETRA      9768       1    1873    1888    1160     248
CTETRA      9769       1    1889     250     245     248
CTETRA      9770       1    3897    3898    1337    2867
CTETRA      9771       1    2862    2865     813    1027
CTETRA      9772       1    1343    1346    2865    1027
CTETRA      9773       1    3786    2632    1334     829
CTETRA      9774       1    1889     994     250     248
CTETRA      9775       1    2252     792     841     770
CTETRA      9776       1    2860    2878    2877     929
CTETRA      9777       1    1890    1891     250     994
CTETRA      9778       1    1889    1890     250     994
CTETRA      9779       1    1852    1868    1867     177
CTETRA      9780       1     726     626     920     921
CTETRA      9781       1    1875    1876     994    1060
CTETRA      9782       1    2742    1143     804     801
CTETRA      9783       1    2389    2391     848     691
CTETRA      9784       1    1293    1162    1303     983
CTETRA      9785       1    2343    2347    2346     979
CTETRA      9786       1    1097     537     263    1172
CTETRA      9787       1     764     716     765     769
CTETRA      9788       1    3726    2486    3727     467
CTETRA      9789       1     430    1121     246     244
CTETRA      9790       1     764     769     841     785
CTETRA      9791       1     883     957     374     232
CTETRA      9792       1     374     232     234     235
CTETRA      9793       1     362       8     980     375
CTETRA      9794       1    1474     308     980     309
CTETRA      9795       1    1483     510     308     309
CTETRA      9796       1    3441     428    2263     563
CTETRA      9797       1    1901    1902    1916    1215
CTETRA      9798       1     362     308     510     377
CTETRA      9799       1    3343    3344    1627    1197
CTETRA      9800       1     510     647    1132     374
CTETRA      9801       1     945     946     941     942
CTETRA      9802       1     945    1136     199     942
CTETRA      9803       1    3343    3468    3467    1197
CTETRA      9804       1    1793    1808     945     199
CTETRA      9805       1    3406    3344    3994    3465
CTETRA      9806       1     204     210     195     772
CTETRA      9807       1    3065     772     947     773
CTETRA      9808       1    3287    2901    1593     584
CTETRA      9809       1    1742    1743    1757     602
CTETRA      9810       1    1809     199    1052     210
CTETRA      9811       1    3503     478     714      63
CTETRA      9812       1     714     282     492     988
CTETRA      9813       1     836      57     988     490
CTETRA      9814       1     990      57     278      59
CTETRA      9815       1    3729    2550    2543    1151
CTETRA      9816       1    2891    3649    2892     361
CTETRA      9817       1    3647     933     643     357
CTETRA      9818       1    2957     331    2958      40
CTETRA      9819       1    3408    1684    1683     876
CTETRA      9820       1    3807    2653     791     686
CTETRA      9821       1    1609    1610     739      86
CTETRA      9822       1    3418    2243    2241    1183
CTETRA      9823       1    3607    2096    2357    2425
CTETRA      9824       1    3046    3047    1489     183
CTETRA      9825       1    1016     183     111     133
CTETRA      9826       1    2918    1609    2919     739
CTETRA      9827       1     186     132     188     131
CTETRA      9828       1    3090    2241    2243     178
CTETRA      9829       1    3120    3981    1463     114
CTETRA      9830       1    2967    1463    1464     414
CTETRA      9831       1     739    1136      86     942
CTETRA      9832       1    1866    1867    1881     730
CTETRA      9833       1    3006    3362    3361    1682
CTETRA      9834       1     710     918     172      59
CTETRA      9835       1     832     709     747     297
CTETRA      9836       1     709     172     710     918
CTETRA      9837       1    1672     747    1676     709
CTETRA      9838       1    1287    1288    1001     694
CTETRA      9839       1    1283    1285    1284    1001
CTETRA      9840       1    3011    3012    1487     878
CTETRA      9841       1    3018    3019    1477     567
CTETRA      9842       1    3563     408     277     273
CTETRA      9843       1    3808    3809    2654     477
CTETRA      9844       1    3809    3810    2659     477
CTETRA      9845       1    1663     747    1672     709
CTETRA      9846       1    2654    2659    2655     477
CTETRA      9847       1    1159       5     304       7
CTETRA      9848       1     832     747     749     297
CTETRA      9849       1    3835    2133    3836    2711
CTETRA      9850       1    1676     832     747     749
CTETRA      9851       1     836     490     988    1051
CTETRA      9852       1    1664    1676    1672     747
CTETRA      9853       1     277     685     683     682
CTETRA      9854       1    2913    1233     997      21
CTETRA      9855       1    3836    2134    2613    1161
CTETRA      9856       1    2911    1224      91     997
CTETRA      9857       1    1233     997      21    1015
CTETRA      9858       1    3086    2255    2254     811
CTETRA      9859       1    1777      29    1792      24
CTETRA      9860       1    1603      21     997      22
CTETRA      9861       1    2911      91    1601     997
CTETRA      9862       1    2350    2436    2435     341
CTETRA      9863       1    1807     945    1822     941
CTETRA      9864       1    1823     199    1824     946
CTETRA      9865       1    3085    2259     766     771
CTETRA      9866       1    1792    1807    1806     941
CTETRA      9867       1     945     941      29     942
CTETRA      9868       1    1610     824     390     942
CTETRA      9869       1    3312    3313    3412    1149
CTETRA      9870       1    3411    3412    2256      82
CTETRA      9871       1    3312    3412    3411      82
CTETRA      9872       1    1822     941     945     946
CTETRA      9873       1    1776     389    1777      24
CTETRA      9874       1    3029    1705    3368     978
CTETRA      9875       1    1558    1105     274     198
CTETRA      9876       1    3240      19      68      16
CTETRA      9877       1    2579     338     982    1114
CTETRA      9878       1    1557     308     362     980
CTETRA      9879       1    2860    2861     929    1026
CTETRA      9880       1    1679     132    1686     901
CTETRA      9881       1    3381    1681    1684     911
CTETRA      9882       1    3048    1686    3379     182
CTETRA      9883       1      19     137      12     133
CTETRA      9884       1    1335    1336    1387     828
CTETRA      9885       1    1338    1341    1026     830
CTETRA      9886       1    1340    2867    1026    1027
CTETRA      9887       1    3981    1656    1657     379
CTETRA      9888       1    3851    3870    4002    3557
CTETRA      9889       1    2861    2867     930    1026
CTETRA      9890       1    4002    3557    3870    3558
CTETRA      9891       1    2953    1169     601     664
CTETRA      9892       1    3836    2613    2711    1161
CTETRA      9893       1    3870    3558    3557     992
CTETRA      9894       1    4002    3558    3870    3882
CTETRA      9895       1    1803    1084     662     579
CTETRA      9896       1     662     577     585     579
CTETRA      9897       1    2950    1591    1594     667
CTETRA      9898       1    3073     665    1511     668
CTETRA      9899       1    3882    2176    2756    1051
CTETRA      9900       1    1515    1107    1031     668
CTETRA      9901       1    3501    3808    3502     380
CTETRA      9902       1    3724    1010    1011    1101
CTETRA      9903       1    2951     667    1594     666
CTETRA      9904       1     669     662     668     661
CTETRA      9905       1     904     935     796     797
CTETRA      9906       1     354     729     353     863
CTETRA      9907       1    3050     654    1501     512
CTETRA      9908       1    1227    1228     156     935
CTETRA      9909       1    3270    2888    3271    1621
CTETRA      9910       1    3991    3650    2890     262
CTETRA      9911       1     333      40     964     334
CTETRA      9912       1    3835    2181    2133    2711
CTETRA      9913       1    2888    2889    1237     355
CTETRA      9914       1    1228     932     156     796
CTETRA      9915       1    3401    2889    1621     348
CTETRA      9916       1    1798    1122      41    1071
CTETRA      9917       1    3076    1254    1255    1126
CTETRA      9918       1    2896     937    1230     156
CTETRA      9919       1    1230     156     937     935
CTETRA      9920       1    2895     156     932     158
CTETRA      9921       1    2896     160     937     156
CTETRA      9922       1    3991     346    3401     262
CTETRA      9923       1    1281    1289    1290     340
CTETRA      9924       1    3680    3681    1277    2447
CTETRA      9925       1     160     934     164     159
CTETRA      9926       1    2444    2448    2447     672
CTETRA      9927       1    1311    2422    2426     187
CTETRA      9928       1    2427    2444     672     720
CTETRA      9929       1    2021     677    2022     468
CTETRA      9930       1    2435    2448    2449     338
CTETRA      9931       1    3582    1976    3583     142
CTETRA      9932       1    2022     677    2023     679
CTETRA      9933       1    2989     851     317     852
CTETRA      9934       1     677     103     144     101
CTETRA      9935       1    3116    3758    1284     573
CTETRA      9936       1    2008    2023     677     679
CTETRA      9937       1    2003    2004    2019     135
CTETRA      9938       1    3652    3653    1297    2354
CTETRA      9939       1    2354    2355    2408     287
CTETRA      9940       1     456     464     931     678
CTETRA      9941       1     916      49     578     579
CTETRA      9942       1    2355    2400    2408     287
CTETRA      9943       1    2487     961    2546    1153
CTETRA      9944       1    2533    2534    2546     962
CTETRA      9945       1    3657    1302    1303    2396
CTETRA      9946       1    2904     582    1222     578
CTETRA      9947       1    1220     578    1222      50
CTETRA      9948       1    2575     681     680     721
CTETRA      9949       1    2903    1220      49     578
CTETRA      9950       1    2569     194     672     720
CTETRA      9951       1    1760    1761    1775    1013
CTETRA      9952       1    1763    1778    1777     389
CTETRA      9953       1    3191    1504    1747    1505
CTETRA      9954       1    2903     578      49     577
CTETRA      9955       1    1946     113    1947      66
CTETRA      9956       1    1966     522    1981      73
CTETRA      9957       1    1977    1978    1992     143
CTETRA      9958       1    2348    2434    2437     985
CTETRA      9959       1    1947     113    1948      66
CTETRA      9960       1    2615    2712    1069    1068
CTETRA      9961       1    3658    3659    1323    2397
CTETRA      9962       1    2615    1068    1069     953
CTETRA      9963       1    2868    2873    1069    1029
CTETRA      9964       1    2873    2880    2881    1068
CTETRA      9965       1    2187    2703    2735    1120
CTETRA      9966       1    1322    1326    2392     845
CTETRA      9967       1    1325    2398    2399     848
CTETRA      9968       1    2533    2539     264     266
CTETRA      9969       1    2179    2183    2182    1029
CTETRA      9970       1    2709    1103    1068    1214
CTETRA      9971       1    2704    1068    1103    1120
CTETRA      9972       1    2732    1049    2734    1120
CTETRA      9973       1    2608    2653    2661     531
CTETRA      9974       1    2838     683    2840    1050
CTETRA      9975       1     837    1050     683     697
CTETRA      9976       1    3712    2104    2521     475
CTETRA      9977       1    2168    2172    2171     635
CTETRA      9978       1     685     686     837     697
CTETRA      9979       1    2343    2344    2404     458
CTETRA      9980       1    3895    1343    2865    2866
CTETRA      9981       1    2862    2866    2865    1027
CTETRA      9982       1    1291    1292    2580     339
CTETRA      9983       1     524     407    1074    1073
CTETRA      9984       1    2620    2630    2629     815
CTETRA      9985       1    1360    2631    2619     781
CTETRA      9986       1    2861    2867    2862     930
CTETRA      9987       1    2862     813     930    1027
CTETRA      9988       1    1337    1340    2867    1026
CTETRA      9989       1    3691    3692     570    1074
CTETRA      9990       1    2860     623    1099     828
CTETRA      9991       1    1344    1348    1347    1028
CTETRA      9992       1    2131    2132    1069    1111
CTETRA      9993       1     987     446     445     399
CTETRA      9994       1    2594     982    1116    1073
CTETRA      9995       1    2594     524     570    1074
CTETRA      9996       1    3778    2619    1360    2631
CTETRA      9997       1    1246    1248    1086    1107
CTETRA      9998       1    1370     404    2743     928
CTETRA      9999       1     477     683     687     220
CTETRA     10000       1    2666     928    1003     219
CTETRA     10001       1    2829    2831    2830    1005
CTETRA     10002       1     774    1216    1009     128
CTETRA     10003       1    1084     998     127    1081
CTETRA     10004       1    1772     585     916     579
CTETRA     10005       1    1748    1504    1506     823
CTETRA     10006       1    1084    1212    1085     127
CTETRA     10007       1    1395    1399    1398    1034
CTETRA     10008       1    2760    2761    2877     623
CTETRA     10009       1    1248    1085    1086    1107
CTETRA     10010       1    1591    1592     584    1087
CTETRA     10011       1    1389    1393    1392    1099
CTETRA     10012       1    1760    1008    1775     774
CTETRA     10013       1    3903    1399    1396    2784
CTETRA     10014       1    2782    2783    2786    1094
CTETRA     10015       1    1401    1402    1405    1094
CTETRA     10016       1    3905    1405    1402    1094
CTETRA     10017       1    1760    1008     774     775
CTETRA     10018       1    2786    2800    1094    1022
CTETRA     10019       1    3904    1402    1399    2783
CTETRA     10020       1    1775     774    1008     128
CTETRA     10021       1    3962     977    2741     804
CTETRA     10022       1    2347    1137     320     979
CTETRA     10023       1    3795    1412    3796    2723
CTETRA     10024       1    2685     618    1163     732
CTETRA     10025       1    3761    2611     615     618
CTETRA     10026       1    3761     615     200     618
CTETRA     10027       1    1425    1429    1428     634
CTETRA     10028       1    1437    1439    1440     395
CTETRA     10029       1     200     618     615     701
CTETRA     10030       1    3762     201    1163     618
CTETRA     10031       1    3762    1163    2685     618
CTETRA     10032       1    2118    2571    2124    1182
CTETRA     10033       1    2601    2687    2690     723
CTETRA     10034       1    2551    1202    2561    1155
CTETRA     10035       1    2970    2971    1466      99
CTETRA     10036       1    3068    1509    1521     995
CTETRA     10037       1    3898    1337    2867    1026
CTETRA     10038       1    1709    1710    1711     872
CTETRA     10039       1    2562    2563    2572     676
CTETRA     10040       1     846     330     963     513
CTETRA     10041       1    3139    3140    1559     956
CTETRA     10042       1    3346    1707    1711    1063
CTETRA     10043       1    3018    1477    1478     393
CTETRA     10044       1    3534    2332     963     513
CTETRA     10045       1    3146    1484    3147     452
CTETRA     10046       1    3532    2332     410     963
CTETRA     10047       1    3898    1336    1337    1026
CTETRA     10048       1    1996    2011    2010     102
CTETRA     10049       1    3865     963    3532     705
CTETRA     10050       1    3043    3376    3044     453
CTETRA     10051       1    2307     323     849     367
CTETRA     10052       1    3043    3044    1492     453
CTETRA     10053       1     504     505     908     706
CTETRA     10054       1    2971    2972    1466      99
CTETRA     10055       1      99     879     116      95
CTETRA     10056       1    3865    1727    3534     963
CTETRA     10057       1    2132    1111    2135    1161
CTETRA     10058       1    2138    1111    2139    1157
CTETRA     10059       1    2846    2873    1069    1111
CTETRA     10060       1    2847    2868    2873    1111
CTETRA     10061       1    2136    2847    2139    1111
CTETRA     10062       1    3067    1260    1258     206
CTETRA     10063       1    2343    2346    2344     979
CTETRA     10064       1    2138    2142    2141    1157
CTETRA     10065       1     955     256    1158    1157
CTETRA     10066       1    2142    2856    2857    1157
CTETRA     10067       1    1110    1111    1069    1161
CTETRA     10068       1    1850    1851    1866      90
CTETRA     10069       1    1853    1854    1869      93
CTETRA     10070       1    2139    2847    2856    1111
CTETRA     10071       1    2846    1069    1110    1111
CTETRA     10072       1    2139    2856    2142    1157
CTETRA     10073       1     629    1121     723    1057
CTETRA     10074       1    3961     429    3962     804
CTETRA     10075       1      83     717     811     807
CTETRA     10076       1     400     621     619     431
CTETRA     10077       1    3410    3411    2254     809
CTETRA     10078       1    1925    1037     746    1178
CTETRA     10079       1     977     618     732     202
CTETRA     10080       1     619     431     621     620
CTETRA     10081       1     462     357     460    1210
CTETRA     10082       1    1834    1835    1513     996
CTETRA     10083       1    3971    1540     896     895
CTETRA     10084       1    1610     196    1612     942
CTETRA     10085       1    1436     431     616     620
CTETRA     10086       1    3077    1510    1517     819
CTETRA     10087       1    3420    2244    2243     228
CTETRA     10088       1    2475     680    2480     189
CTETRA     10089       1     977     431     618     701
CTETRA     10090       1    1438     400    2884     395
CTETRA     10091       1    1871     561     516     517
CTETRA     10092       1    1951     521     522      73
CTETRA     10093       1    2012    2013    2028     103
CTETRA     10094       1    2028    2029    1133     735
CTETRA     10095       1    2014    1033    2015     735
CTETRA     10096       1    2045    2046    1134     735
CTETRA     10097       1    2033     456    2048     931
CTETRA     10098       1    2718    2719    1193     416
CTETRA     10099       1    3908    1414    1411    2780
CTETRA     10100       1    3908    2779    1414    2780
CTETRA     10101       1    3223    1841    3224    1526
CTETRA     10102       1    1841     516    1856     895
CTETRA     10103       1    2798    2799    1144     415
CTETRA     10104       1    1413    1414    1417     418
CTETRA     10105       1    1997    1109     337     102
CTETRA     10106       1    1109     479     102      73
CTETRA     10107       1    3237    1933    1934    1548
CTETRA     10108       1    3586     468    3587     457
CTETRA     10109       1    3236    3237    1934    1548
CTETRA     10110       1    2331    2333     410     412
CTETRA     10111       1    1990    2005     140     142
CTETRA     10112       1    1377    1381    1380     587
CTETRA     10113       1     455     104     313     305
CTETRA     10114       1    2037     679     545     468
CTETRA     10115       1    1806    1821    1820    1089
CTETRA     10116       1    2045    1134    1133     735
CTETRA     10117       1    2011     337    2012     101
CTETRA     10118       1    1134     735     931     464
CTETRA     10119       1    3158    2310    3159     366
CTETRA     10120       1    2037    2038     545     679
CTETRA     10121       1    1137     979     350     359
CTETRA     10122       1    3160    1582    1575       5
CTETRA     10123       1      66     141      73     142
CTETRA     10124       1    1984    1999    1109    1033
CTETRA     10125       1    3192    1749    1748    1506
CTETRA     10126       1    2005     136     140     142
CTETRA     10127       1    2413    1096    2415     537
CTETRA     10128       1    2040     545     679     103
CTETRA     10129       1    2180    2183    1029    1199
CTETRA     10130       1    3159    3160    1575       5
CTETRA     10131       1    1976      66    1977     143
CTETRA     10132       1    2039    2055    2054     545
CTETRA     10133       1    2038    2039     545     679
CTETRA     10134       1    1994     143     102     144
CTETRA     10135       1    2039    2040     545     679
CTETRA     10136       1    2040     593     545     103
CTETRA     10137       1    3312    1638    3313    1149
CTETRA     10138       1    1895    1910     744     742
CTETRA     10139       1    1879    1880    1894     810
CTETRA     10140       1    2131    2180    1029    1199
CTETRA     10141       1    1249    1250    1171     996
CTETRA     10142       1    2010    2011    2026     101
CTETRA     10143       1     545     593     595     464
CTETRA     10144       1    3990    1588    1587      45
CTETRA     10145       1    1600      92     127    1206
CTETRA     10146       1    3555     481     356     590
CTETRA     10147       1    2551    2552    2562     676
CTETRA     10148       1    1668    1675    1676     832
CTETRA     10149       1    3150    2302    3151     434
CTETRA     10150       1    2940     790    1175     776
CTETRA     10151       1    3583    3584    2005     136
CTETRA     10152       1    3258    2054    3259     594
CTETRA     10153       1    1600     127    1171    1206
CTETRA     10154       1    1600     790    1602     776
CTETRA     10155       1     545     679     103     464
CTETRA     10156       1     312    1180     779     293
CTETRA     10157       1     312      46     441     293
CTETRA     10158       1    3301    1600    2941    1602
CTETRA     10159       1    1805    1089    1200    1090
CTETRA     10160       1     304     305     310     293
CTETRA     10161       1    2903      49    1592     577
CTETRA     10162       1    1177     303     552     910
CTETRA     10163       1    3269     312     454     313
CTETRA     10164       1    3532    3533    2332     963
CTETRA     10165       1    1740    1741    1755     576
CTETRA     10166       1    3284    2906    3285    1595
CTETRA     10167       1     436     970     965     286
CTETRA     10168       1    3268    3269     312     454
CTETRA     10169       1    3304    2947    2946    1083
CTETRA     10170       1    2945    1085    1212     127
CTETRA     10171       1    1779    1780    1795     859
CTETRA     10172       1    3261     778    3262     305
CTETRA     10173       1    2052     545    2053     595
CTETRA     10174       1     558     780     910     293
CTETRA     10175       1    3297    2935    2934    1610
CTETRA     10176       1    3586    2050     468     457
CTETRA     10177       1    3259    3260     304     594
CTETRA     10178       1    3264     463    3265     780
CTETRA     10179       1    2053     545    2054     594
CTETRA     10180       1    2959    3730    3731      38
CTETRA     10181       1    2033    2034     456     678
CTETRA     10182       1     595     464     455     468
CTETRA     10183       1    3649     320     361     358
CTETRA     10184       1    1827    1510    1070     819
CTETRA     10185       1    3290    3291    2965    1618
CTETRA     10186       1    3587     455    2065     457
CTETRA     10187       1    2047    2048    2063     456
CTETRA     10188       1    2036    2037    2052     468
CTETRA     10189       1    2306     322    2307     323
CTETRA     10190       1    3431     893    1125     905
CTETRA     10191       1    3258    3259     304     594
CTETRA     10192       1    3431    3432    2247     893
CTETRA     10193       1    2681    2697     731     834
CTETRA     10194       1    3265    2061    3266     463
CTETRA     10195       1    2034    2035     456     678
CTETRA     10196       1    3394     906    3526    1148
CTETRA     10197       1    3324    3325    3433     944
CTETRA     10198       1    2065     455     454     457
CTETRA     10199       1      27    1215      79     926
CTETRA     10200       1    3032    3369    3033    1131
CTETRA     10201       1    3032    1131    1473     981
CTETRA     10202       1    2563    2575    2572     681
CTETRA     10203       1    3141    3142    1563     226
CTETRA     10204       1    1703     981    1021     378
CTETRA     10205       1      52     378     315     374
CTETRA     10206       1    1704     981     978     222
CTETRA     10207       1    1473     981     980     231
CTETRA     10208       1    3443    3759    3444     616
CTETRA     10209       1    1642    1646    1645     529
CTETRA     10210       1    3031    1704     981     978
CTETRA     10211       1    3326    3453    1642     529
CTETRA     10212       1    3031    3368    1704     978
CTETRA     10213       1     135     735    1033     136
CTETRA     10214       1    2030    2031    2046     735
CTETRA     10215       1    1999     337    1109    1033
CTETRA     10216       1    1976      66     143     142
CTETRA     10217       1    2022     677     679     468
CTETRA     10218       1    1981     522    1109      73
CTETRA     10219       1    2425    2441    2442     433
CTETRA     10220       1    3016     397     406     396
CTETRA     10221       1    3004    3363    1683     876
CTETRA     10222       1    2002    2003    2018     135
CTETRA     10223       1    2002    2018    2017     135
CTETRA     10224       1    3597     670    3598     423
CTETRA     10225       1    1681    1682    1683     147
CTETRA     10226       1    3407    1684    3408     876
CTETRA     10227       1    3382    3997    3872    3506
CTETRA     10228       1    2131    2179    2868    1029
CTETRA     10229       1    2038    2039    2054     545
CTETRA     10230       1    3872    3805    3850    2173
CTETRA     10231       1    2016     135     931     735
CTETRA     10232       1     916     584      49     579
CTETRA     10233       1    2031    2047    2046     931
CTETRA     10234       1    1999    2014     337    1033
CTETRA     10235       1    1740      18    1741     576
CTETRA     10236       1    3184    3185    1740    1495
CTETRA     10237       1    3394    3395    3528     514
CTETRA     10238       1    2004     135     140     136
CTETRA     10239       1    3261     310    1578     366
CTETRA     10240       1    1988    2003     480     140
CTETRA     10241       1    2000    2016    2015    1033
CTETRA     10242       1     102      73     479     142
CTETRA     10243       1    1969    1984    1109      74
CTETRA     10244       1    2003    2004     135     140
CTETRA     10245       1    1979    1994     143     102
CTETRA     10246       1    1973     140    1987      44
CTETRA     10247       1     140     483     479      44
CTETRA     10248       1    2021    2022    2037     468
CTETRA     10249       1    3542    3543    2321     966
CTETRA     10250       1      43     469     483      44
CTETRA     10251       1    2931     195    1612     196
CTETRA     10252       1    3733    1296    3734    1010
CTETRA     10253       1    3859    3860    1734     966
CTETRA     10254       1    3311    3409    1640     762
CTETRA     10255       1    3733    3723    1298    1010
CTETRA     10256       1    1739    1502    1740     797
CTETRA     10257       1    1052     199    1136     738
CTETRA     10258       1    2902    2903    1226      49
CTETRA     10259       1     659     940    1100     162
CTETRA     10260       1    3651     940    2356    1100
CTETRA     10261       1    1755    1770    1769     904
CTETRA     10262       1    2947    1246    1248    1086
CTETRA     10263       1    1614    1035     737     646
CTETRA     10264       1    3283    2909    2908      92
CTETRA     10265       1     739    1136     942     738
CTETRA     10266       1    1773    1774    1788    1081
CTETRA     10267       1    1804    1200    1819     998
CTETRA     10268       1    1613     195     204     738
CTETRA     10269       1    2921    1613    2922      85
CTETRA     10270       1    1822     941     946     206
CTETRA     10271       1    1241     821      85     822
CTETRA     10272       1    1793    1794    1809    1136
CTETRA     10273       1    1814    1829    1828    1024
CTETRA     10274       1    1816     669     662     668
CTETRA     10275       1    1813    1814    1828    1071
CTETRA     10276       1    2922    1241    1242      85
CTETRA     10277       1    3197    1828    1829    1516
CTETRA     10278       1    1814    1815    1829    1198
CTETRA     10279       1    2952    3723    2953    1101
CTETRA     10280       1     822     712     899     860
CTETRA     10281       1     898     739    1136      86
CTETRA     10282       1    3591    1795    1780     855
CTETRA     10283       1    3733    3724    3723    1010
CTETRA     10284       1    1763    1764     898     823
CTETRA     10285       1    3293    2926    1615     641
CTETRA     10286       1    1283    1284    2499    1000
CTETRA     10287       1    3271    2886    3272    1077
CTETRA     10288       1    1610      86     824     942
CTETRA     10289       1    1140    1141    1195    1168
CTETRA     10290       1    3588    1736    3589     729
CTETRA     10291       1    3591    3592    1795     857
CTETRA     10292       1    3079    3971    2245     895
CTETRA     10293       1    3754    1291    2580    2581
CTETRA     10294       1     959     718    1168     272
CTETRA     10295       1    3224    1526    1841    1539
CTETRA     10296       1    1533     518     517    1123
CTETRA     10297       1    3079    2247    2246    1123
CTETRA     10298       1    3573    1855    3210    1540
CTETRA     10299       1    1201     687    1195    1168
CTETRA     10300       1    3563    3877    3876     273
CTETRA     10301       1    3877     277     684     273
CTETRA     10302       1    2456    1023    2459     472
CTETRA     10303       1    1871    1872     561     517
CTETRA     10304       1     380     288     477     682
CTETRA     10305       1    3223    1842    1841    1526
CTETRA     10306       1    3575    1856    1871     516
CTETRA     10307       1    3574    1841    1856     895
CTETRA     10308       1    2042    2058     778    1133
CTETRA     10309       1    1932     511    1549     301
CTETRA     10310       1    1841    1842    1856     517
CTETRA     10311       1     714     492      57     988
CTETRA     10312       1    1859    1874    1873     890
CTETRA     10313       1    3878    2841     684     683
CTETRA     10314       1    3576    1871    1886      27
CTETRA     10315       1    3468    3469    2271      48
CTETRA     10316       1    3878     684     277     683
CTETRA     10317       1    2011     102     337     144
CTETRA     10318       1     719     809     811     807
CTETRA     10319       1    3409    2254     719     809
CTETRA     10320       1    2254     719     809     811
CTETRA     10321       1    2254     809    2256     811
CTETRA     10322       1    3449     856     766     608
CTETRA     10323       1    3484    3485    2264     973
CTETRA     10324       1    3088    2238    3089      89
CTETRA     10325       1    3087    1528     811     612
CTETRA     10326       1    3086    2254    3087     811
CTETRA     10327       1    1911     555    1926     746
CTETRA     10328       1    3414    3415    2238     886
CTETRA     10329       1    3414    1637    3415     886
CTETRA     10330       1    2923     197    1241    1035
CTETRA     10331       1     858      85    1118     821
CTETRA     10332       1    1980    1995    1994     102
CTETRA     10333       1    1857    1858    1872     890
CTETRA     10334       1     858    1136     739     737
CTETRA     10335       1    1842    1843    1857     517
CTETRA     10336       1    3338    3339    1631     802
CTETRA     10337       1    1611    1613      85     739
CTETRA     10338       1    3573    3224    1841    1539
CTETRA     10339       1    2904     582     578     577
CTETRA     10340       1    3320    1630    3426     892
CTETRA     10341       1    3426    3427    2248    1173
CTETRA     10342       1    1978    1979     143      73
CTETRA     10343       1    1975     140      72     141
CTETRA     10344       1    2183    2186    1029    1120
CTETRA     10345       1    1592      49     584     577
CTETRA     10346       1    1216      92    1009     128
CTETRA     10347       1    2500    2587    2588    1000
CTETRA     10348       1    3755    2580    1292    2588
CTETRA     10349       1    2182    2185    2870    1029
CTETRA     10350       1    2527    2528     845    1102
CTETRA     10351       1    3172    2331     410     411
CTETRA     10352       1    1757    1758     581      50
CTETRA     10353       1    3247    1953    1952     523
CTETRA     10354       1    1222     582    1059      50
CTETRA     10355       1    2983    3350    2984     120
CTETRA     10356       1    2873    2874    1068    1029
CTETRA     10357       1    3937    2869    2179    1029
CTETRA     10358       1    1084    1212     998    1104
CTETRA     10359       1    2008     677    2009     679
CTETRA     10360       1    3937    2870    2869    1029
CTETRA     10361       1    1818    1107    1084    1104
CTETRA     10362       1    2017    2018    2033     931
CTETRA     10363       1    1818    1833    1107    1104
CTETRA     10364       1    1817    1084    1818    1107
CTETRA     10365       1     662     663     585    1087
CTETRA     10366       1    2770    2776    2771     763
CTETRA     10367       1    2007    2008    2023     677
CTETRA     10368       1    1977    1992    1991     143
CTETRA     10369       1    2024    2040    2039     679
CTETRA     10370       1    3057    1059    1223     775
CTETRA     10371       1    1803    1084    1817     662
CTETRA     10372       1    1803    1804     998    1081
CTETRA     10373       1    1773     774    1774    1081
CTETRA     10374       1    1995    1996    2010     102
CTETRA     10375       1    2027    2043    2042    1133
CTETRA     10376       1    2046    2047    2062     463
CTETRA     10377       1    2003    2019    2018     135
CTETRA     10378       1    3267    2063    3268     454
CTETRA     10379       1    2308     321     906     514
CTETRA     10380       1    2013     337    2014     735
CTETRA     10381       1    2039    2040    2055     545
CTETRA     10382       1    1119    1177     550     552
CTETRA     10383       1    3266    2061    2062     463
CTETRA     10384       1    1731     267     268     269
CTETRA     10385       1     321     514     322     329
CTETRA     10386       1    1950    1965    1964      73
CTETRA     10387       1    3446    3447     765     767
CTETRA     10388       1    3308    3447    3446     767
CTETRA     10389       1    1643    1646     190     767
CTETRA     10390       1    1861     716     769    1067
CTETRA     10391       1    1695     239     234     233
CTETRA     10392       1    3147    3148    1570     452
CTETRA     10393       1      81     689     475     642
CTETRA     10394       1    3240    1960    1959      72
CTETRA     10395       1    2771     912    2811     913
CTETRA     10396       1     364      71     146      10
CTETRA     10397       1    1968      74     522     469
CTETRA     10398       1    1528     856     811    1067
CTETRA     10399       1    3449     719     856     608
CTETRA     10400       1    3449    2255    2253     856
CTETRA     10401       1    3242    1957    3243      42
CTETRA     10402       1    1956    1957    1971      44
CTETRA     10403       1      15      16      43       9
CTETRA     10404       1    2367      81    2378     642
CTETRA     10405       1    3716    2075    2537    1172
CTETRA     10406       1     190     767     827     608
CTETRA     10407       1     715     827     767     608
CTETRA     10408       1    3717    2075    2087    2537
CTETRA     10409       1    2535    1210    2547     461
CTETRA     10410       1    2014    2030    2029     735
CTETRA     10411       1    2543    1151    2550    1210
CTETRA     10412       1    3720    2086    2080     350
CTETRA     10413       1    2090    2099    2098     580
CTETRA     10414       1    2432    2433    2439     447
CTETRA     10415       1    3448     766    1643     608
CTETRA     10416       1     716     766     856     608
CTETRA     10417       1     575     759     904     157
CTETRA     10418       1    1228    1229     932     796
CTETRA     10419       1     420     580     392     422
CTETRA     10420       1    2893    1229     391     932
CTETRA     10421       1     260     342     644     652
CTETRA     10422       1    2465    1182     470     681
CTETRA     10423       1    2576    2577    2589     580
CTETRA     10424       1    2553    2557      65     189
CTETRA     10425       1    1313      65    2557      69
CTETRA     10426       1    2480     680      65     189
CTETRA     10427       1    3613    3614    2122    2470
CTETRA     10428       1    2120    2122    2121     386
CTETRA     10429       1    2553    2564     680      65
CTETRA     10430       1    1306    2554    1315      65
CTETRA     10431       1    3260     310     304     305
CTETRA     10432       1    2845    2849     955     952
CTETRA     10433       1    2846    2851    2856    1110
CTETRA     10434       1    3261    1159     310     366
CTETRA     10435       1    4002    3870    3954    3882
CTETRA     10436       1    2354    2408    2407     287
CTETRA     10437       1    3765     630     628     627
CTETRA     10438       1    2174    2176    2178    1051
CTETRA     10439       1    3262     558     850     310
CTETRA     10440       1    3953    2175    2755    2756
CTETRA     10441       1    2174    2175    2176     622
CTETRA     10442       1    1578     310     850     366
CTETRA     10443       1    3262     850    1578     310
CTETRA     10444       1     838     170     184     750
CTETRA     10445       1    1180     303    1177     910
CTETRA     10446       1    3260    1159     304     310
CTETRA     10447       1    3835    2710    2181    2711
CTETRA     10448       1    3826    2205    3827    2737
CTETRA     10449       1    2675    2737    2729     307
CTETRA     10450       1     326     303     751     302
CTETRA     10451       1    2757    2794    2758     864
CTETRA     10452       1    1800    1815    1814     596
CTETRA     10453       1    2194    2195    2198     864
CTETRA     10454       1    3819    2226    3820    2689
CTETRA     10455       1     599     596     336     166
CTETRA     10456       1    3075    1253    1254     599
CTETRA     10457       1     728    1186    1203    1053
CTETRA     10458       1    3819    2603    2229     915
CTETRA     10459       1    3075    3076    1516    1126
CTETRA     10460       1    2602     914    1186    1188
CTETRA     10461       1    3818    2603    2605    1188
CTETRA     10462       1    3819    2226    2689     915
CTETRA     10463       1    1828    1024    1516     819
CTETRA     10464       1    2602    2605    2603    1188
CTETRA     10465       1    3577    1886    1901      27
CTETRA     10466       1    1886      27     369     889
CTETRA     10467       1    1829    1198    1518    1024
CTETRA     10468       1    3074    3075    1518     336
CTETRA     10469       1    3341    3471    3470     925
CTETRA     10470       1      27     943      28    1146
CTETRA     10471       1    3430    2245    2249    1125
CTETRA     10472       1    2250     868    1192     896
CTETRA     10473       1    3198    1516    1829    1518
CTETRA     10474       1    2400    2401    2410    1208
CTETRA     10475       1    3429    3430    2249    1190
CTETRA     10476       1    1616    1076    1617    1077
CTETRA     10477       1    3573    1855    1540     897
CTETRA     10478       1    3094    2276    3095     798
CTETRA     10479       1    3426    2248    2250    1192
CTETRA     10480       1    3322    3429    3428    1189
CTETRA     10481       1    1901    1215    1916      79
CTETRA     10482       1    3341    3470    3469     925
CTETRA     10483       1    3340    3471     925     881
CTETRA     10484       1    3428    3429    2249    1190
CTETRA     10485       1    3579     373    1555     482
CTETRA     10486       1    2012     337     103     101
CTETRA     10487       1    3577    1915     943      79
CTETRA     10488       1    3004    1461     385     370
CTETRA     10489       1    3277    2919    1609    1611
CTETRA     10490       1    3576      27    3577     943
CTETRA     10491       1    1460     370     414     379
CTETRA     10492       1    2029    2030    2045     735
CTETRA     10493       1    2523     848     691     692
CTETRA     10494       1    2523    2540     848     692
CTETRA     10495       1    3099    2283    2282    1178
CTETRA     10496       1    3148    1567    1570    1016
CTETRA     10497       1    2390      80     693     265
CTETRA     10498       1    1924    1925    1939    1178
CTETRA     10499       1    2519     689    2531     691
CTETRA     10500       1    2389     848    2395     692
CTETRA     10501       1    3153    1585    1584    1177
CTETRA     10502       1    3392    1735    1733     520
CTETRA     10503       1    3173    1670     846     257
CTETRA     10504       1     994    1060     764     785
CTETRA     10505       1     941     946     947     942
CTETRA     10506       1    3862    3538    3537     267
CTETRA     10507       1    1289    1292    1291     339
CTETRA     10508       1     196     942     199     738
CTETRA     10509       1      22      23      24    1174
CTETRA     10510       1    3526     906    2290    1148
CTETRA     10511       1    3525    3526    2290    1148
CTETRA     10512       1    2294     909     550     551
CTETRA     10513       1    1791    1806    1090      24
CTETRA     10514       1    1282    1283    1292     986
CTETRA     10515       1    1806    1821    1089     941
CTETRA     10516       1    3539    3540    2320    1006
CTETRA     10517       1    3862    3539    3538     267
CTETRA     10518       1    1678     254     252     969
CTETRA     10519       1    1260     390     205     947
CTETRA     10520       1     698     767     841     501
CTETRA     10521       1    1793    1136     945      29
CTETRA     10522       1    1793     199     945    1136
CTETRA     10523       1    2385    2386     962     983
CTETRA     10524       1    2386    2396    1162     983
CTETRA     10525       1    3444     616     841     699
CTETRA     10526       1    3771    1378    3772    2599
CTETRA     10527       1    2539     265     264     266
CTETRA     10528       1    3444    3445    2252     841
CTETRA     10529       1    2533     962    2545     983
CTETRA     10530       1     303     751     302     297
CTETRA     10531       1    1324     848    2540     842
CTETRA     10532       1    3736    1293    1301     983
CTETRA     10533       1    1752    1767     354     656
CTETRA     10534       1    3491    2307    4000     849
CTETRA     10535       1    1767     354     655     352
CTETRA     10536       1     861     354     352    1077
CTETRA     10537       1     354     348     352    1077
CTETRA     10538       1    2887     355     353     348
CTETRA     10539       1    3534    2334    2332     513
CTETRA     10540       1    3812    2600    1141     586
CTETRA     10541       1     354     353     355     348
CTETRA     10542       1    1752     656     354     512
CTETRA     10543       1     975     429     854     251
CTETRA     10544       1     410     846     847     328
CTETRA     10545       1    1725    1727     963     327
CTETRA     10546       1    1718     849    1725     705
CTETRA     10547       1    1751     354     861     862
CTETRA     10548       1    3171    2331    3172     411
CTETRA     10549       1    1378    2599    1381     405
CTETRA     10550       1     774     128    1081     129
CTETRA     10551       1    1743    1059    1758      50
CTETRA     10552       1     938     161     939     162
CTETRA     10553       1    3110    3651    1297    1100
CTETRA     10554       1    3974    3288    2900     583
CTETRA     10555       1    1774     774    1775     128
CTETRA     10556       1    3110    3974    3651    3641
CTETRA     10557       1    3110    2899    3974    3641
CTETRA     10558       1    1217     997    1233    1015
CTETRA     10559       1    3059      61    1505    1014
CTETRA     10560       1    2109    2382    2377     642
CTETRA     10561       1    1776    1090    1013      24
CTETRA     10562       1    1775    1090    1790     128
CTETRA     10563       1    2502    2516    2503     688
CTETRA     10564       1    2362    2371    2363     535
CTETRA     10565       1    2508     690     689     535
CTETRA     10566       1    2101    2382    2109     642
CTETRA     10567       1    1089    1090      24    1174
CTETRA     10568       1    1008      92      91     776
CTETRA     10569       1    3629    2377    2109    2382
CTETRA     10570       1    3405     542    2237     484
CTETRA     10571       1    2342    2402    2406     466
CTETRA     10572       1     888     726     298     920
CTETRA     10573       1     638     123     300     511
CTETRA     10574       1    3463    3464     300     633
CTETRA     10575       1    1293    1303    1302     983
CTETRA     10576       1    1145    1058     298     299
CTETRA     10577       1    3462     637     638    1145
CTETRA     10578       1    3462     637    3463     638
CTETRA     10579       1     638     298    1145     727
CTETRA     10580       1    2903    2904     578     577
CTETRA     10581       1     756     583     659     940
CTETRA     10582       1    2342    2403    2402     460
CTETRA     10583       1    3973    2952     666    1101
CTETRA     10584       1    1591     584     663    1087
CTETRA     10585       1    2530     693      80     265
CTETRA     10586       1    3110     663    1593     584
CTETRA     10587       1    3632    2066    2107    2366
CTETRA     10588       1    3633    2071    2066    2416
CTETRA     10589       1     667     663     666     661
CTETRA     10590       1    3073    1515    1031     668
CTETRA     10591       1    1591    1593     663     584
CTETRA     10592       1    1962    1963    1977      66
CTETRA     10593       1    1831    1832    1515     668
CTETRA     10594       1      15     362     450      13
CTETRA     10595       1    3095    2266    3096     603
CTETRA     10596       1    1902    1917    1215     125
CTETRA     10597       1    3600    3601    2348     695
CTETRA     10598       1    2433    2434    2449     985
CTETRA     10599       1    1919     298     242     565
CTETRA     10600       1    1903     888     245     298
CTETRA     10601       1    1040     870     107     225
CTETRA     10602       1    2357    2359    2358     423
CTETRA     10603       1    3599    3600    2437    1018
CTETRA     10604       1    3599    2432     987     446
CTETRA     10605       1    3685    2353    2351     936
CTETRA     10606       1    3106    2288     511     299
CTETRA     10607       1    2493    2494     426     419
CTETRA     10608       1    3016    3017    1478     396
CTETRA     10609       1    3164    2299    2297     280
CTETRA     10610       1    1285    1286    1287     936
CTETRA     10611       1    2580    2588     982     339
CTETRA     10612       1    1285     936    1001     986
CTETRA     10613       1    2128    2463    2365     688
CTETRA     10614       1    1257     196    1261     947
CTETRA     10615       1     199     947     772     773
CTETRA     10616       1     941     947     946     206
CTETRA     10617       1    1260    1261     390     947
CTETRA     10618       1    2880    2881    1068     953
CTETRA     10619       1    2615    1069    2626     953
CTETRA     10620       1    3419    1634     229     740
CTETRA     10621       1    2585     674     420     675
CTETRA     10622       1    2615    2709    1068     953
CTETRA     10623       1    1854    1535    1855     897
CTETRA     10624       1    2576    2585    2577     580
CTETRA     10625       1    2576    2584    2585     386
CTETRA     10626       1    1853    1536    1538      93
CTETRA     10627       1    2418    2466    2469     386
CTETRA     10628       1    3700    2090    2098     580
CTETRA     10629       1    1313    1320    1319      69
CTETRA     10630       1    1320    2557     105      69
CTETRA     10631       1    2503    2504    2558     471
CTETRA     10632       1    1309    1312     187      65
CTETRA     10633       1    1318    2482    2481     105
CTETRA     10634       1    2556     105     189     185
CTETRA     10635       1    1854     897    1869      93
CTETRA     10636       1    2364    2463    2460     688
CTETRA     10637       1    1329    1331    1330     258
CTETRA     10638       1    2248    1192    1173     896
CTETRA     10639       1    2508    2519    2518    1102
CTETRA     10640       1    2248    2250    1192     896
CTETRA     10641       1    3770    1381    3771    2599
CTETRA     10642       1    2453    2472    2478     185
CTETRA     10643       1    2507    2508    2518     474
CTETRA     10644       1    3671    1319    1318    2481
CTETRA     10645       1     867     865     702     818
CTETRA     10646       1    3093     896    1540     897
CTETRA     10647       1    3092    2250    3093     868
CTETRA     10648       1    1316    2450    2482    1023
CTETRA     10649       1    3744    1317    1320    2555
CTETRA     10650       1    1316    2482     105    1023
CTETRA     10651       1    1869    1113    1884    1042
CTETRA     10652       1    3228    3229    1942    1553
CTETRA     10653       1    2508    2514    2512     535
CTETRA     10654       1     786     352    1078    1079
CTETRA     10655       1     655     352     354     347
CTETRA     10656       1    3720    2080    3721    2496
CTETRA     10657       1    2080    2081    2498     351
CTETRA     10658       1    1767     655    1782     352
CTETRA     10659       1    3721    2081    3722    2498
CTETRA     10660       1    2114    2117    2511     534
CTETRA     10661       1    3706    2126    2127    2502
CTETRA     10662       1    2567    2585     386     721
CTETRA     10663       1    3591     861    1781     786
CTETRA     10664       1     344    1075    1078     352
CTETRA     10665       1    2617    2632    2618     829
CTETRA     10666       1    3746    1315    3747    2557
CTETRA     10667       1    1390    2762    1099     828
CTETRA     10668       1    3409     809     719     762
CTETRA     10669       1    3311    1640    1639     762
CTETRA     10670       1    1864      83     717     811
CTETRA     10671       1      82     811      83     612
CTETRA     10672       1    2133    2135    2134    1161
CTETRA     10673       1    1864      83    1879     717
CTETRA     10674       1    3702    2124    3703    2566
CTETRA     10675       1     810      83      33     807
CTETRA     10676       1    2122    2470    2471     470
CTETRA     10677       1    2568    2583    2585     675
CTETRA     10678       1    1270    1308    1310     194
CTETRA     10679       1      82     762      33     807
CTETRA     10680       1    2417     392    2430     580
CTETRA     10681       1    1309    1312    1311     187
CTETRA     10682       1    2568     720    2583     675
CTETRA     10683       1    3409    2254    2255     719
CTETRA     10684       1    1850      89    1865     612
CTETRA     10685       1    3411    1639      82     762
CTETRA     10686       1    1386    1099    1389     829
CTETRA     10687       1    2587    1116    2588    1000
CTETRA     10688       1    2594    1116     524    1073
CTETRA     10689       1     391     643     932     644
CTETRA     10690       1     391     652     644     649
CTETRA     10691       1    2570    2581    2582     672
CTETRA     10692       1    3052    1500     796     797
CTETRA     10693       1    3051    1229     796     654
CTETRA     10694       1    3052    1228     935     796
CTETRA     10695       1    3052     796     935     797
CTETRA     10696       1    3405    1628    1627     489
CTETRA     10697       1     888    1160     726     920
CTETRA     10698       1    1871     516     561     889
CTETRA     10699       1    3404     489    3405     484
CTETRA     10700       1    3404    2237    2236     484
CTETRA     10701       1    1229     391     932     796
CTETRA     10702       1    3081     560    1532     518
CTETRA     10703       1    3080    1533    1526    1123
CTETRA     10704       1    3767    2604    2606     533
CTETRA     10705       1    1160     561     890     921
CTETRA     10706       1    3080    2239    3081     518
CTETRA     10707       1    3775    1366    3776    2667
CTETRA     10708       1    2246    1124     488     518
CTETRA     10709       1    1841    1526    1842    1123
CTETRA     10710       1    1925    1926    1940     746
CTETRA     10711       1    1952    1967    1966     522
CTETRA     10712       1    2229    2603    1188     915
CTETRA     10713       1    3818    2229    3819    2603
CTETRA     10714       1     488     489     487     626
CTETRA     10715       1     516     893     491     889
CTETRA     10716       1    3573    1540     895     897
CTETRA     10717       1    2603    2689    2688     915
CTETRA     10718       1    2602    2688     914    1188
CTETRA     10719       1    3816    2604    2236     533
CTETRA     10720       1    2805     731    2808     834
CTETRA     10721       1    2249     896    1190     895
CTETRA     10722       1    2222    2226    2225     525
CTETRA     10723       1    2771    2772    2811     912
CTETRA     10724       1    3428    1173    1190     896
CTETRA     10725       1    1941    1553    1541    1055
CTETRA     10726       1    3323    1623    1626     905
CTETRA     10727       1    2705    2709    2713    1214
CTETRA     10728       1     894    1125    1190     895
CTETRA     10729       1    3971     896    2249     895
CTETRA     10730       1    3428    1190    2249     896
CTETRA     10731       1    3032    3033    1474    1131
CTETRA     10732       1    3796    1412    1415    2722
CTETRA     10733       1    1870     894      28    1113
CTETRA     10734       1    1420    2775    1423     831
CTETRA     10735       1    2687    2702     734     914
CTETRA     10736       1    1626     905     126     944
CTETRA     10737       1     894     896    1113     897
CTETRA     10738       1    3921    3922    2227    2770
CTETRA     10739       1    2751    2753    2752     728
CTETRA     10740       1    1822    1115     941     206
CTETRA     10741       1     941     947     205     942
CTETRA     10742       1     888    1160     245     726
CTETRA     10743       1    1794    1052    1809    1136
CTETRA     10744       1    3923    2221    2812    2813
CTETRA     10745       1    1924    1939     610    1178
CTETRA     10746       1    1824     199     210     773
CTETRA     10747       1    2224    2225     763     913
CTETRA     10748       1    3922    2812    2224     763
CTETRA     10749       1    2808     834     167     913
CTETRA     10750       1    1257     196     947     772
CTETRA     10751       1    2751    1053    2776     763
CTETRA     10752       1    1837     946    1520     206
CTETRA     10753       1    1924    1939    1938     610
CTETRA     10754       1     478     686     791     490
CTETRA     10755       1    1805    1090    1200     128
CTETRA     10756       1    1804    1200     998    1206
CTETRA     10757       1     127      92     128    1206
CTETRA     10758       1    3415    1637    1636     886
CTETRA     10759       1    1200    1175     995     996
CTETRA     10760       1    3034    1474    1131     309
CTETRA     10761       1    3841    2652    2146     880
CTETRA     10762       1    2817    2824    2818     213
CTETRA     10763       1    3888    2831    1364    2832
CTETRA     10764       1    3143     980    1561     231
CTETRA     10765       1    3034    1131    1702     309
CTETRA     10766       1    2637    2638    2665     219
CTETRA     10767       1    2438     420     447     674
CTETRA     10768       1    2579    2580     982     339
CTETRA     10769       1     696     340    1116     986
CTETRA     10770       1    1278    2581     672     341
CTETRA     10771       1    2438    2440     447     420
CTETRA     10772       1    1018     695     984    1073
CTETRA     10773       1    1873    1874     248     890
CTETRA     10774       1    2578    2582    2579     338
CTETRA     10775       1    2590     447     674    1114
CTETRA     10776       1    1340    2866    2867    1027
CTETRA     10777       1    1289    1290     340     341
CTETRA     10778       1    3096    2269    3097     882
CTETRA     10779       1    2965    1262    1264    1213
CTETRA     10780       1    2964    2965    1264    1213
CTETRA     10781       1    3291    3292    2966    1616
CTETRA     10782       1    2437    1018     984     446
CTETRA     10783       1    2964    1619    1618    1076
CTETRA     10784       1     655     342     344     343
CTETRA     10785       1    1794    1810    1809    1052
CTETRA     10786       1    1118     898    1129      86
CTETRA     10787       1    2926    1266    3966    1080
CTETRA     10788       1    2965    2966    1262     207
CTETRA     10789       1    1616    1077     866     646
CTETRA     10790       1    3291    2965    1618    1076
CTETRA     10791       1    2964    1075    1619    1076
CTETRA     10792       1    1825     210     571     773
CTETRA     10793       1    2487    2489    2488     961
CTETRA     10794       1    3294    2928    1614     204
CTETRA     10795       1    2928    1267     641     204
CTETRA     10796       1    2954    3725    2955    1169
CTETRA     10797       1     659     663     584     757
CTETRA     10798       1    3294    1614    1613     204
CTETRA     10799       1     331      40     599     166
CTETRA     10800       1    1225      49    1226      51
CTETRA     10801       1     916      51      49     757
CTETRA     10802       1     331     648      40     166
CTETRA     10803       1    2956    3726    3727     332
CTETRA     10804       1    3054      17    1225      51
CTETRA     10805       1    3343    3467    3466    1197
CTETRA     10806       1    3466    3467    2273      47
CTETRA     10807       1    2409    1154     460     461
CTETRA     10808       1    3293    1614    2928     641
CTETRA     10809       1    1872    1887    1886     561
CTETRA     10810       1    3466    3467      47    1197
CTETRA     10811       1    3460     951    1145     430
CTETRA     10812       1    3594     572     787     208
CTETRA     10813       1    1615     641    1080     646
CTETRA     10814       1     429     202    1057     251
CTETRA     10815       1    2926    1266    1080     572
CTETRA     10816       1    3763     201     562    1163
CTETRA     10817       1    3106    2287    2288     299
CTETRA     10818       1    1080     641     572     789
CTETRA     10819       1    1080     646     641     789
CTETRA     10820       1    3575    1885    1870      28
CTETRA     10821       1    2149    2153    2152     880
CTETRA     10822       1    1882    1883    1112     175
CTETRA     10823       1    1899     805    1914     816
CTETRA     10824       1    1884     891    1899    1112
CTETRA     10825       1    1918    1919    1933     299
CTETRA     10826       1    3439     629     562     631
CTETRA     10827       1    3460    3958    3461     951
CTETRA     10828       1    1767    1768     655     656
CTETRA     10829       1    2146    2150    2149     880
CTETRA     10830       1     163     600     162     660
CTETRA     10831       1     891     816    1112     376
CTETRA     10832       1    1867    1868     175     177
CTETRA     10833       1    3051    1218    1229     654
CTETRA     10834       1    2885    1240     866     353
CTETRA     10835       1    3387     435    3514    1179
CTETRA     10836       1     354     862     729     863
CTETRA     10837       1     866    1077     353     863
CTETRA     10838       1    3151    1586    1583     434
CTETRA     10839       1     228     229     175     176
CTETRA     10840       1    1867    1882     730     175
CTETRA     10841       1    3091      93    1536     177
CTETRA     10842       1    3387    1726     435    1179
CTETRA     10843       1    1868    1883     175    1042
CTETRA     10844       1    3443     792     200     699
CTETRA     10845       1    3514    2302    2300    1184
CTETRA     10846       1    1866     730    1881      88
CTETRA     10847       1    3311    3312    3411    1639
CTETRA     10848       1    1896    1897     553     743
CTETRA     10849       1    3419    1634     228     229
CTETRA     10850       1    1881    1150      88     743
CTETRA     10851       1    1316    1317    1330     105
CTETRA     10852       1    3309    3448    1643     608
CTETRA     10853       1    1317    1320    2555     105
CTETRA     10854       1    2555    2557    2556     105
CTETRA     10855       1    1317    2555    2560     105
CTETRA     10856       1    1588      45     280    1184
CTETRA     10857       1     434    1184     435     437
CTETRA     10858       1    3386    3513    3512    1179
CTETRA     10859       1    3386    3514    3513    1179
CTETRA     10860       1    3328    1644    3451     607
CTETRA     10861       1    3311    3411    3410     762
CTETRA     10862       1    3514    2300    1179    1184
CTETRA     10863       1    3512    2300     443    1179
CTETRA     10864       1    3409    3410    2254     809
CTETRA     10865       1    3311    1639    3411     762
CTETRA     10866       1    3448    3449     766     608
CTETRA     10867       1    3414    1149    1637     886
CTETRA     10868       1    1724    1179     443     439
CTETRA     10869       1    3993    3404    3815    3768
CTETRA     10870       1    3325    1628    3404     491
CTETRA     10871       1    2326     168     497     169
CTETRA     10872       1    3437    3438    2262     486
CTETRA     10873       1    3551     180    2326     497
CTETRA     10874       1    3549    2326     168     497
CTETRA     10875       1    3855    3550    3549     497
CTETRA     10876       1    3348    3349    1705     318
CTETRA     10877       1    1724     180     497     439
CTETRA     10878       1    1805    1820    1200    1089
CTETRA     10879       1    1819    1200    1820     996
CTETRA     10880       1      74     483     469      44
CTETRA     10881       1    1819     996    1834    1104
CTETRA     10882       1    2252    2263     792     770
CTETRA     10883       1    2981    3351    2982     119
CTETRA     10884       1     998    1212    1171     996
CTETRA     10885       1    2983    1447     119     120
CTETRA     10886       1     200     699     792     203
CTETRA     10887       1    2979    1699     547     546
CTETRA     10888       1    1701    1702    1703     378
CTETRA     10889       1    1084    1107    1085    1104
CTETRA     10890       1    1970    1985    1984      74
CTETRA     10891       1    3372     647    1700    1132
CTETRA     10892       1    1818     998    1819    1104
CTETRA     10893       1    3144    1473    1474     980
CTETRA     10894       1    1835     995    1509     996
CTETRA     10895       1    3069    1509     995     996
CTETRA     10896       1    3169    2330    3170     711
CTETRA     10897       1    3069    1243    1250     996
CTETRA     10898       1    3865    3532    3866     705
CTETRA     10899       1    3396    1727    1725     322
CTETRA     10900       1    1600    1171     790    1206
CTETRA     10901       1     998    1212     996    1104
CTETRA     10902       1    3157    2307    2305     367
CTETRA     10903       1    2891    2892    1229     391
CTETRA     10904       1    2890    2891     346     262
CTETRA     10905       1    3991    2889    3401     346
CTETRA     10906       1    3070     996    1212    1104
CTETRA     10907       1    2893    1228    1229     932
CTETRA     10908       1    3069    1249    3070     996
CTETRA     10909       1    3135    3136    1558    1105
CTETRA     10910       1    3254     274      67     198
CTETRA     10911       1    2687    2688    2702     914
CTETRA     10912       1    3254     110    1571     198
CTETRA     10913       1    3254    1571    1558     198
CTETRA     10914       1    2892    2893    1229     391
CTETRA     10915       1    2547    2550    2549     462
CTETRA     10916       1     385     192     379     383
CTETRA     10917       1    3401     358    3650     262
CTETRA     10918       1    3051     796    1500     654
CTETRA     10919       1    3136    1061     274    1105
CTETRA     10920       1    2890    2891    1218     346
CTETRA     10921       1    3253      67     274     145
CTETRA     10922       1    3031    3368    3369    1704
CTETRA     10923       1    3991    2890    2889     346
CTETRA     10924       1    1797    1812    1811    1078
CTETRA     10925       1    3022    3978    3116    3696
CTETRA     10926       1    2991    1449    1450    1047
CTETRA     10927       1     152     215     153     225
CTETRA     10928       1      13     377     374     375
CTETRA     10929       1    3023    3978    3364    3116
CTETRA     10930       1    3115    1284    1288    1001
CTETRA     10931       1    2263     428     792     770
CTETRA     10932       1    1472    1095     978     231
CTETRA     10933       1    1705    1095     318     222
CTETRA     10934       1    2987    3348    2988     852
CTETRA     10935       1    3653    1299    1297    2354
CTETRA     10936       1     524     570    1074     407
CTETRA     10937       1    2349    2350    2435     340
CTETRA     10938       1    3647     466     933     357
CTETRA     10939       1    1824    1825    1840     773
CTETRA     10940       1    3647    2342     466     357
CTETRA     10941       1    2522     845    2528     691
CTETRA     10942       1    2522     848     845     691
CTETRA     10943       1     331     462     648    1152
CTETRA     10944       1    2376     689      81     642
CTETRA     10945       1    1316     105    1330    1023
CTETRA     10946       1    2518    1102     473     474
CTETRA     10947       1    2519    2520    2531     689
CTETRA     10948       1    1324    1326    1327     848
CTETRA     10949       1     933     357     466     648
CTETRA     10950       1    1913     816    1914     708
CTETRA     10951       1    2369    2370    2391     845
CTETRA     10952       1    2370    2392    2391     845
CTETRA     10953       1     466     462     357     460
CTETRA     10954       1    1137     460    1210     458
CTETRA     10955       1    1359    1363    1362     781
CTETRA     10956       1     197     736     860     863
CTETRA     10957       1    1236     353    1238     617
CTETRA     10958       1    2637    2666    1003     219
CTETRA     10959       1    1236    1240     353     729
CTETRA     10960       1    2885    2886     353    1077
CTETRA     10961       1    1271    2565    1307     187
CTETRA     10962       1    2761    2860     623    1099
CTETRA     10963       1    3064    1267    3065     571
CTETRA     10964       1    3786    1334    1385     829
CTETRA     10965       1    1809    1052     199    1136
CTETRA     10966       1    1795     857    1810    1052
CTETRA     10967       1    1854    1538    1535      93
CTETRA     10968       1    1793    1809     199    1136
CTETRA     10969       1    3574    1856    3575     894
CTETRA     10970       1     929     830     829     828
CTETRA     10971       1    1779     859    1794    1136
CTETRA     10972       1    1795     855    1052     859
CTETRA     10973       1    2880     953    1068    1214
CTETRA     10974       1    1810    1052     857     210
CTETRA     10975       1    2534    2538     459     264
CTETRA     10976       1    2413     459    1097     264
CTETRA     10977       1    3338    3476    3475     802
CTETRA     10978       1    3336    1633    1634     784
CTETRA     10979       1    3903    3904    1399    2784
CTETRA     10980       1    1398    1402    1094    1034
CTETRA     10981       1    3960     429    2742    1142
CTETRA     10982       1    1633     784     376     703
CTETRA     10983       1    1896     553    1911     742
CTETRA     10984       1     882     603     708     605
CTETRA     10985       1    3804    3113    3976    3759
CTETRA     10986       1    3335    3336    1634     784
CTETRA     10987       1    2992    3345    3977    3114
CTETRA     10988       1    3335    1634    1635     784
CTETRA     10989       1     632     539     542     541
CTETRA     10990       1    1160     890     248     625
CTETRA     10991       1    1884    1900    1899     891
CTETRA     10992       1     883     117      98     235
CTETRA     10993       1     641     788     572     789
CTETRA     10994       1    1160     248     245     247
CTETRA     10995       1    3436     486     488     485
CTETRA     10996       1    2997    1018    1017     695
CTETRA     10997       1    2431     987    2432     445
CTETRA     10998       1    2293    2294     550     519
CTETRA     10999       1     401    1019     987     399
CTETRA     11000       1    2998    3598    2999     401
CTETRA     11001       1     427    1164     397     398
CTETRA     11002       1    2998     401    1020    1019
CTETRA     11003       1    2431     423     987     445
CTETRA     11004       1    3140    1475    3141    1002
CTETRA     11005       1    3317    3318    3421     703
CTETRA     11006       1    2765    2766    2772     801
CTETRA     11007       1    3418    3419    2243    1183
CTETRA     11008       1    3317    3419    1634     228
CTETRA     11009       1     400     658     801     732
CTETRA     11010       1    3070    1512    1513    1104
CTETRA     11011       1    3589     862    1765     712
CTETRA     11012       1    1576     850    1577     323
CTETRA     11013       1    3262    3263     850     558
CTETRA     11014       1    3079    2246    3080    1123
CTETRA     11015       1    3263    1577    1576     850
CTETRA     11016       1     849     367     323     706
CTETRA     11017       1    1124     517     518    1123
CTETRA     11018       1    3172     410    2332     846
CTETRA     11019       1     753     749     847     295
CTETRA     11020       1    1841    1539    1526    1123
CTETRA     11021       1     850     908     323     367
CTETRA     11022       1    3172     410     847     411
CTETRA     11023       1    3157    3158    1578     367
CTETRA     11024       1     476     504     365     367
CTETRA     11025       1    3089    2238    2242    1135
CTETRA     11026       1    1865    1866    1880      88
CTETRA     11027       1    3262     558     310     780
CTETRA     11028       1    2270     793     557     882
CTETRA     11029       1    1734     967    1735     520
CTETRA     11030       1    1633     784     557     376
CTETRA     11031       1    3030    3031    1471     978
CTETRA     11032       1    2266     793    2270     882
CTETRA     11033       1    3522    2293    2295     520
CTETRA     11034       1    3392    3524     519    1148
CTETRA     11035       1    3291    1616    2966    1076
CTETRA     11036       1    3337    3478    3477     793
CTETRA     11037       1    3110    3288    3974     583
CTETRA     11038       1    2979    3352    2980     547
CTETRA     11039       1    3244    3245    1557     362
CTETRA     11040       1     802     603     798     795
CTETRA     11041       1    1957    1972    1971      44
CTETRA     11042       1    2986     853    1445     121
CTETRA     11043       1    3095    2277     603     798
CTETRA     11044       1    1219     583    1225      18
CTETRA     11045       1    2985    2986    1445     121
CTETRA     11046       1    3251     145     364     146
CTETRA     11047       1    3245       8     362       9
CTETRA     11048       1    2276     881     799     798
CTETRA     11049       1    3245    1954    3246     523
CTETRA     11050       1    4001     410    2333     412
CTETRA     11051       1    1718    1720    1721     372
CTETRA     11052       1    2276     802    2277     798
CTETRA     11053       1    1421    2676    1167    1043
CTETRA     11054       1    3531    4000    2307     849
CTETRA     11055       1    2277     802     603     798
CTETRA     11056       1    2066    2071    2070     537
CTETRA     11057       1    3970    1523    1524     208
CTETRA     11058       1    3262    2058    3263     778
CTETRA     11059       1    1208     287     961    1196
CTETRA     11060       1    2545    2546    1162     962
CTETRA     11061       1    3262    1576    1578     850
CTETRA     11062       1    3156    1577     321     323
CTETRA     11063       1    1665    1668    1676     753
CTETRA     11064       1    2290    2294     519     551
CTETRA     11065       1    2001    2017    2016     480
CTETRA     11066       1     443    1179    1184     437
CTETRA     11067       1    1671    1674    1677     838
CTETRA     11068       1    2076    2088    2087    1096
CTETRA     11069       1    3585    2036    3586     468
CTETRA     11070       1    2028    2029    2044    1133
CTETRA     11071       1    2386    1162     962     983
CTETRA     11072       1    2386    2409     962    1196
CTETRA     11073       1    2283     885      32    1178
CTETRA     11074       1     744    1038     810      33
CTETRA     11075       1    3058    1224    1015     775
CTETRA     11076       1    3485     885     973     745
CTETRA     11077       1    3333    3484    3483     973
CTETRA     11078       1    3593    1811    3594     787
CTETRA     11079       1    1150      88     743     741
CTETRA     11080       1    3333    3485    3484     973
CTETRA     11081       1      88     612      89      84
CTETRA     11082       1     555     746    1191    1055
CTETRA     11083       1    1112     817     175     703
CTETRA     11084       1    3297    1608    2935    1610
CTETRA     11085       1    1911     742     555     746
CTETRA     11086       1    3416    3417    1183     740
CTETRA     11087       1    1864    1865    1879      83
CTETRA     11088       1     704    1191     555     741
CTETRA     11089       1    3062    1231    1242     821
CTETRA     11090       1    1606     824    1608      23
CTETRA     11091       1    1143     734     801     912
CTETRA     11092       1    3993    3434    3404     485
CTETRA     11093       1    1880      88    1150      83
CTETRA     11094       1    2257      82    1149     612
CTETRA     11095       1    1910     744     742     746
CTETRA     11096       1    3258     304      78     104
CTETRA     11097       1    1581      76      53      55
CTETRA     11098       1    3789    1391    1394    2715
CTETRA     11099       1     778     463     780     779
CTETRA     11100       1    3333    3334    1636     704
CTETRA     11101       1      76      53      55      56
CTETRA     11102       1     558    1044     326     910
CTETRA     11103       1    3242    3243    1568     450
CTETRA     11104       1    1661      94      95      96
CTETRA     11105       1     558     310     780     293
CTETRA     11106       1    3258      78     304      53
CTETRA     11107       1    3241    3242    1570     448
CTETRA     11108       1      78     293     304     294
CTETRA     11109       1    3161    2313    3162      55
CTETRA     11110       1    2977    3354    3353    1697
CTETRA     11111       1    3502     478    3503      63
CTETRA     11112       1    3355    1693    1695     238
CTETRA     11113       1     709     184     918     750
CTETRA     11114       1    1796     786     344    1078
CTETRA     11115       1    1797     344    1122    1071
CTETRA     11116       1     957      52     374     232
CTETRA     11117       1    1797    1070     344    1071
CTETRA     11118       1    2899    1219     756     583
CTETRA     11119       1    3354    1695    1697     233
CTETRA     11120       1     583      17      18     757
CTETRA     11121       1    2977    2978    1456     546
CTETRA     11122       1    1797    1798    1812    1071
CTETRA     11123       1    3026    3365    3366    1708
CTETRA     11124       1    1244    1255      39     819
CTETRA     11125       1    1782     655    1122     344
CTETRA     11126       1    3195    1826    1510    1524
CTETRA     11127       1     344     345     342    1128
CTETRA     11128       1     655     344     352     343
CTETRA     11129       1    2749    2750     404      37
CTETRA     11130       1    3382    3383    3507    1714
CTETRA     11131       1    1269    2446    2443     194
CTETRA     11132       1    1122     344     655     342
CTETRA     11133       1    2695     636     621     732
CTETRA     11134       1    3801    2678    2677     621
CTETRA     11135       1    2677    2693    1043     621
CTETRA     11136       1    1428     621    1043     634
CTETRA     11137       1    3011     911    3012     878
CTETRA     11138       1    1431    1432     400     634
CTETRA     11139       1    3801    1430    2678     621
CTETRA     11140       1    1427    1043    1428     621
CTETRA     11141       1    1078     207     208    1079
CTETRA     11142       1    1912     554    1927     555
CTETRA     11143       1    3476     793    2266     603
CTETRA     11144       1    3096     603     882     605
CTETRA     11145       1     826     673     607     606
CTETRA     11146       1    1749    1750    1765     712
CTETRA     11147       1    3594    1826    3986    1524
CTETRA     11148       1    3110     583     659     584
CTETRA     11149       1    3858    3546    3545    1176
CTETRA     11150       1    3452    3453     673     190
CTETRA     11151       1     529     501     530     495
CTETRA     11152       1    3387    1726    1728     435
CTETRA     11153       1    3002     876    3003     385
CTETRA     11154       1    3390    1734    3391     544
CTETRA     11155       1    1678     838     254     999
CTETRA     11156       1    3858    3544    3859    1176
CTETRA     11157       1    3453     529    3454     527
CTETRA     11158       1    1937     826     606     528
CTETRA     11159       1    3102    1547    1546     528
CTETRA     11160       1     764     499     841     501
CTETRA     11161       1     826     607     190     827
CTETRA     11162       1    3002    3408    3003     876
CTETRA     11163       1    3081    1532    1533     518
CTETRA     11164       1    1769    1770    1784     575
CTETRA     11165       1    1791    1806    1805    1090
CTETRA     11166       1    1008      91      22     776
CTETRA     11167       1    1771    1786    1785     574
CTETRA     11168       1    3464    3465     300     633
CTETRA     11169       1    3057    1221    1223    1059
CTETRA     11170       1    1872    1873     561     890
CTETRA     11171       1    1872     561     517     890
CTETRA     11172       1    1857    1872     517     890
CTETRA     11173       1    1776    1791    1790    1090
CTETRA     11174       1     125     126     889     920
CTETRA     11175       1     890     518     560     625
CTETRA     11176       1    3435    3436     488     485
CTETRA     11177       1    1779    1795    1794     859
CTETRA     11178       1    3589    1751     862     729
CTETRA     11179       1    3589     729     862     712
CTETRA     11180       1    3294    2929    2928     204
CTETRA     11181       1    3588    1508     729     712
CTETRA     11182       1     855     899     862     860
CTETRA     11183       1    1736     729    1507     512
CTETRA     11184       1    3049     617    1237     512
CTETRA     11185       1    3049    1237    3050     512
CTETRA     11186       1    2952     664    1245     665
CTETRA     11187       1    3049    1507    3969     617
CTETRA     11188       1    2395    2399    2398     848
CTETRA     11189       1    1325    2399    1326     848
CTETRA     11190       1    3199    1830    1511    1518
CTETRA     11191       1    3973    2952    2951     666
CTETRA     11192       1    2907    1595    1597    1216
CTETRA     11193       1    1326    2399    2392     848
CTETRA     11194       1    3738    2522    2540     848
CTETRA     11195       1     200     792     428     203
CTETRA     11196       1    2286    2289     241    1207
CTETRA     11197       1      39    1187     820    1128
CTETRA     11198       1    3458    2289     854     241
CTETRA     11199       1     242     502     243     496
CTETRA     11200       1    2280      32     768     610
CTETRA     11201       1     562     733    1163    1057
CTETRA     11202       1    3458     854     429     241
CTETRA     11203       1    3590    3591    1780     855
CTETRA     11204       1    1641     607     609     608
CTETRA     11205       1    1843    1844    1858    1166
CTETRA     11206       1    3079    3080    1526    1123
CTETRA     11207       1    1842    1857    1856     517
CTETRA     11208       1    3433     491    3434    1124
CTETRA     11209       1     486     631     560     625
CTETRA     11210       1    3434    3435    2239     488
CTETRA     11211       1    3101     610    2281     606
CTETRA     11212       1    3404    3434     491     485
CTETRA     11213       1    2281     610     609     606
CTETRA     11214       1    1528    1531     856    1067
CTETRA     11215       1    3217    1528    1848    1531
CTETRA     11216       1    1878    1879    1893     810
CTETRA     11217       1    2254    2255     719     811
CTETRA     11218       1    1882    1897    1896     743
CTETRA     11219       1    3334    3335    1635     704
CTETRA     11220       1    1881    1896    1895    1150
CTETRA     11221       1     744    1038      33      34
CTETRA     11222       1    3484    2264    2268     973
CTETRA     11223       1    1941     122     746    1055
CTETRA     11224       1    3465     123     300     633
CTETRA     11225       1    1640     608     609     762
CTETRA     11226       1    3579    1945    1930     482
CTETRA     11227       1    3972     993    1555     373
CTETRA     11228       1    3466    2273    2272     124
CTETRA     11229       1    3468    2271    2273      47
CTETRA     11230       1    3467    3468    2273      47
CTETRA     11231       1    2591    1117    1114    1073
CTETRA     11232       1     109     877     396     394
CTETRA     11233       1    1400    1403    2721    1022
CTETRA     11234       1    3603     696     907     694
CTETRA     11235       1    2996    1017     907     695
CTETRA     11236       1    2997    1019    1017    1018
CTETRA     11237       1    3456    2289    2278     493
CTETRA     11238       1    2996    2997    1017     695
CTETRA     11239       1    3063    1239    3969     736
CTETRA     11240       1    2459     472    1023     258
CTETRA     11241       1    3235    1935    1543    1550
CTETRA     11242       1    3103    2278    3104     494
CTETRA     11243       1    1397    1400    2721     442
CTETRA     11244       1    3103    1543     528     494
CTETRA     11245       1    2280    2282      32     610
CTETRA     11246       1    1783    1798    1122      41
CTETRA     11247       1    1925    1940    1939    1178
CTETRA     11248       1     391     654     652     649
CTETRA     11249       1    1799      41     755     596
CTETRA     11250       1     599    1126     596     333
CTETRA     11251       1     391     654     346     652
CTETRA     11252       1    1173    1190     896    1204
CTETRA     11253       1    3971    2248    2249     896
CTETRA     11254       1    2244     228     702     176
CTETRA     11255       1    1948    1949    1963     113
CTETRA     11256       1    2315       5       6       4
CTETRA     11257       1    3498     959    3499       4
CTETRA     11258       1    3498    2315       6       4
CTETRA     11259       1    3498       6     959       4
CTETRA     11260       1    1964    1965    1979      73
CTETRA     11261       1    2013     337     735     103
CTETRA     11262       1    2899     583     756     940
CTETRA     11263       1    3491    2305    2307     367
CTETRA     11264       1    1946     113      66     141
CTETRA     11265       1    1578     366     850     367
CTETRA     11266       1     927     503     413     372
CTETRA     11267       1    1971    1972    1986      44
CTETRA     11268       1    3500     380       2     289
CTETRA     11269       1    2018    2033     931     678
CTETRA     11270       1     408     270     291     273
CTETRA     11271       1    3268    1180     312    1138
CTETRA     11272       1     290     272     288     289
CTETRA     11273       1     290    1141    1140    1168
CTETRA     11274       1    1986    1987     480     479
CTETRA     11275       1    2618    2714    2716     624
CTETRA     11276       1     843    1201     718    1168
CTETRA     11277       1    2786    2787    2800    1156
CTETRA     11278       1    2759    1041    2793    1066
CTETRA     11279       1    2079     350    2086     543
CTETRA     11280       1    1814    1071     596    1024
CTETRA     11281       1    2027    2028    2043    1133
CTETRA     11282       1    1011     961     467    1012
CTETRA     11283       1     467     164     161    1209
CTETRA     11284       1     933     466     465     934
CTETRA     11285       1    2490     467    1011     961
CTETRA     11286       1    2546    1153     961    1196
CTETRA     11287       1    2547     462    2549    1153
CTETRA     11288       1    2804    2805    2807     835
CTETRA     11289       1    2046    2062    2061     463
CTETRA     11290       1     462     357     349     645
CTETRA     11291       1    2549     462    1211    1153
CTETRA     11292       1    3727    3728     331    1211
CTETRA     11293       1     344     345    1075     343
CTETRA     11294       1    1768    1783     949     759
CTETRA     11295       1    3714    2069    3715    2529
CTETRA     11296       1    1814     596    1198    1024
CTETRA     11297       1    1844    1534    1845    1166
CTETRA     11298       1    1253    1256     335     336
CTETRA     11299       1    2105      81     263     475
CTETRA     11300       1    2955    1256     601     335
CTETRA     11301       1     755      41     163     165
CTETRA     11302       1    2956     331     599     335
CTETRA     11303       1    2956     599    1253     335
CTETRA     11304       1    2107    2366      80      81
CTETRA     11305       1    3000    3597    3596     670
CTETRA     11306       1    2374    2380    2379     536
CTETRA     11307       1     637     951     722     539
CTETRA     11308       1    1143     734     912     725
CTETRA     11309       1    3958    1130    2764    1203
CTETRA     11310       1    3719    2087    2086    2536
CTETRA     11311       1    3957     637     951     722
CTETRA     11312       1    2535     459    2537     543
CTETRA     11313       1    2552     189     676     185
CTETRA     11314       1    1200     790    1175     996
CTETRA     11315       1    2125    2128    2126    1155
CTETRA     11316       1    2227    2231    2230     763
CTETRA     11317       1    2551     676    1155     185
CTETRA     11318       1    3620    2128    2125    2462
CTETRA     11319       1    2162    2165     869     839
CTETRA     11320       1    3848    2167    2170    2660
CTETRA     11321       1    2838     220     840     218
CTETRA     11322       1     477     687    1195     220
CTETRA     11323       1    3436    3767     630     485
CTETRA     11324       1    3766     630    3767     538
CTETRA     11325       1    2687     723     724     734
CTETRA     11326       1    2194    2198    2197     864
CTETRA     11327       1    2181    2710    2184    1199
CTETRA     11328       1    2209     306    2210     731
CTETRA     11329       1    2228    1188    2231     763
CTETRA     11330       1    3767     538     630     484
CTETRA     11331       1    3070    1513     996    1104
CTETRA     11332       1    3765    2601     723     628
CTETRA     11333       1    1797    1122    1798    1071
CTETRA     11334       1    1798      41    1799    1071
CTETRA     11335       1    1169    1011     332     600
CTETRA     11336       1     663     585     584     757
CTETRA     11337       1    2201    2202    2205     657
CTETRA     11338       1    2697    2701    2700     525
CTETRA     11339       1    2808    2809    2814     167
CTETRA     11340       1    3927    2209    2212    2810
CTETRA     11341       1    2213     731     526     167
CTETRA     11342       1    1787    1802     585     579
CTETRA     11343       1    3245    3246       8     523
CTETRA     11344       1    2901    2902      49     584
CTETRA     11345       1    3285    2905    2904     129
CTETRA     11346       1    2806     306    2810     731
CTETRA     11347       1    3017    3690    3691     406
CTETRA     11348       1    2203    2797    2795     179
CTETRA     11349       1    2901      49     583     584
CTETRA     11350       1    3068    1259     995    1115
CTETRA     11351       1     756     659     583     757
CTETRA     11352       1    1867    1882    1881     730
CTETRA     11353       1     574     916     585     757
CTETRA     11354       1    1640     719     608     762
CTETRA     11355       1    1595    1596     127     129
CTETRA     11356       1    2999    3597    3000     670
CTETRA     11357       1    3097    2267    3098     713
CTETRA     11358       1    2902    1592      49     584
CTETRA     11359       1    1888     245    1160     248
CTETRA     11360       1    1919     242    1920     502
CTETRA     11361       1    3098    2268    2264    1191
CTETRA     11362       1     248     247    1056     244
CTETRA     11363       1    1896    1911    1910     742
CTETRA     11364       1     241    1058     242     244
CTETRA     11365       1     951     246     924     727
CTETRA     11366       1    1905    1920     242     496
CTETRA     11367       1    3697    2494    3688    1164
CTETRA     11368       1    3154    1573    1585     909
CTETRA     11369       1    3537    3538    2316     267
CTETRA     11370       1     561     889     516     921
CTETRA     11371       1    3541    3542    2321     966
CTETRA     11372       1    3393    3525    3524    1148
CTETRA     11373       1     539     727     924     626
CTETRA     11374       1     489     491     920     921
CTETRA     11375       1     389      23      29      24
CTETRA     11376       1    3524    3525    2294     519
CTETRA     11377       1    2915    2916    1129      86
CTETRA     11378       1     254     833     170     751
CTETRA     11379       1    1235    1118    1129      86
CTETRA     11380       1     488    1124     491     921
CTETRA     11381       1    3031    1471     978     231
CTETRA     11382       1    3061     821    1506     823
CTETRA     11383       1     858    1118      85     739
CTETRA     11384       1    3685    1286    2353     936
CTETRA     11385       1    3157    1578     850     367
CTETRA     11386       1    3685    1287    1286     936
CTETRA     11387       1    2348    2352    2349     984
CTETRA     11388       1    2591     982    2594    1073
CTETRA     11389       1    1063     851     873     216
CTETRA     11390       1    1283    1001    1000     986
CTETRA     11391       1    1283    2499    2588     986
CTETRA     11392       1    1281    2353    1286     340
CTETRA     11393       1    3979    3400    3117    3495
CTETRA     11394       1     710     918      75     748
CTETRA     11395       1    3399    1719    3494     476
CTETRA     11396       1    1674     832     838     184
CTETRA     11397       1     832     838     184     750
CTETRA     11398       1    3568    3569    2336     927
CTETRA     11399       1    3532    2333    4001     410
CTETRA     11400       1    1672    1676    1674     709
CTETRA     11401       1    3528    3529    2308     514
CTETRA     11402       1    1674    1675    1678     832
CTETRA     11403       1    3866    3867    1718     372
CTETRA     11404       1     754     753     252     752
CTETRA     11405       1     832     753     754     297
CTETRA     11406       1    2626    1069    1110     953
CTETRA     11407       1    2624    2625     930     952
CTETRA     11408       1    3157    2305    3158     367
CTETRA     11409       1    2877     929    2878    1214
CTETRA     11410       1    3434     488     491     485
CTETRA     11411       1    2878     929     930     953
CTETRA     11412       1    2616    2709     953    1214
CTETRA     11413       1    2616    2624     929     953
CTETRA     11414       1    1617    1075    1621     348
CTETRA     11415       1    3852    1713    1716     356
CTETRA     11416       1    1617    1076    1075    1077
CTETRA     11417       1    3564    2341    2338     270
CTETRA     11418       1    3502    3503    2314      63
CTETRA     11419       1    3289     345    1620    1075
CTETRA     11420       1    3567    3568    2330      31
CTETRA     11421       1    1620     345     259    1075
CTETRA     11422       1    3168    1667    1663     844
CTETRA     11423       1    3533    3534    2332     963
CTETRA     11424       1    3260    1579    1575    1159
CTETRA     11425       1    1159     310     366     504
CTETRA     11426       1    3161    1580    1582       1
CTETRA     11427       1    3261    3262    1578     310
CTETRA     11428       1    1730    1176    1732     972
CTETRA     11429       1    1621    1075     259     348
CTETRA     11430       1    1377    1378    1381     405
CTETRA     11431       1    3884    3885    1376    2749
CTETRA     11432       1    3289    2963     345    1075
CTETRA     11433       1    3494     476    1719     365
CTETRA     11434       1    1832    1833    1514    1107
CTETRA     11435       1    3638    3639    2083    2346
CTETRA     11436       1    3637    3638    2078    2346
CTETRA     11437       1    2963    2964    1213    1075
CTETRA     11438       1    3730    1151    2543     349
CTETRA     11439       1    3291    2966    2965    1076
CTETRA     11440       1    3455    3964    3456     530
CTETRA     11441       1    3103     528    2284     495
CTETRA     11442       1    2289     854    1207     494
CTETRA     11443       1    3456     854    2289     493
CTETRA     11444       1    2504    2515    2514     535
CTETRA     11445       1    2511    2515    2516     534
CTETRA     11446       1     250     242     243     496
CTETRA     11447       1    1905    1906    1920     498
CTETRA     11448       1    1937    1547     500     528
CTETRA     11449       1     499     249     785     203
CTETRA     11450       1    3623    2113    2365    2379
CTETRA     11451       1    2115     536    2380     534
CTETRA     11452       1    2364    2374    2379     536
CTETRA     11453       1    3455     530     493     495
CTETRA     11454       1     933     932     643     158
CTETRA     11455       1    2388    2395    2394     842
CTETRA     11456       1    2366    2378    2367      81
CTETRA     11457       1    2394    2395    2398     842
CTETRA     11458       1    2540     842     848     692
CTETRA     11459       1    2080    2498     350     351
CTETRA     11460       1    3403     259    1620     345
CTETRA     11461       1    1301    1302    1323     983
CTETRA     11462       1    3659    3660    1325    2398
CTETRA     11463       1    2958    3729      38      40
CTETRA     11464       1    2384    2385    2412     264
CTETRA     11465       1    2961     345     820    1187
CTETRA     11466       1    1122     342     949     948
CTETRA     11467       1    3649    3650     358     262
CTETRA     11468       1    3017    3018    1478     393
CTETRA     11469       1     644     649     652     948
CTETRA     11470       1    3018    3019     567     570
CTETRA     11471       1     150      12      13      14
CTETRA     11472       1    2768    2777    2774     831
CTETRA     11473       1    2351    2353    2352     936
CTETRA     11474       1    2586    1116    2594     982
CTETRA     11475       1    3114    1287    3604     694
CTETRA     11476       1    1165    1072     524    1000
CTETRA     11477       1    3070    1212    1247    1104
CTETRA     11478       1    3402     259     261     262
CTETRA     11479       1    2671    2682    2672    1144
CTETRA     11480       1    1427    1428    1431     621
CTETRA     11481       1    2445     674     672     720
CTETRA     11482       1     259    1075     345     343
CTETRA     11483       1    3401     346     259     262
CTETRA     11484       1    3402     261    2085     358
CTETRA     11485       1    1052     737     210     738
CTETRA     11486       1     196     947     199     942
CTETRA     11487       1    1822     945    1823     946
CTETRA     11488       1    2917    1607    2918      86
CTETRA     11489       1    1612     942     196     738
CTETRA     11490       1    2464    2472    1202     676
CTETRA     11491       1    2551     676    1202    1155
CTETRA     11492       1    2464    2465    2473    1182
CTETRA     11493       1    2464    2473    2472     676
CTETRA     11494       1     195     199     210     738
CTETRA     11495       1    3548    1728     168     438
CTETRA     11496       1      45     312      46     441
CTETRA     11497       1    3178    3179    1677     169
CTETRA     11498       1    2364    2365    2463     688
CTETRA     11499       1    2464    2468    2467    1182
CTETRA     11500       1    2318     968    1176     438
CTETRA     11501       1    2919    1231    1235    1118
CTETRA     11502       1    2128    2462    2461    2463
CTETRA     11503       1    1732     968    1734     972
CTETRA     11504       1    2453    2460    2463    1155
CTETRA     11505       1     838     170     254     999
CTETRA     11506       1    3711    2103    3712    2510
CTETRA     11507       1    2729    2737    2736     657
CTETRA     11508       1    3714    2068    2069    2529
CTETRA     11509       1    2318    2322     968     999
CTETRA     11510       1    3177     969    2322     999
CTETRA     11511       1    2476    2477     187     680
CTETRA     11512       1     591     283     613     588
CTETRA     11513       1    1671     184     838     169
CTETRA     11514       1    2123    2471    1182     470
CTETRA     11515       1    1671    1674     838     184
CTETRA     11516       1    1677     838    1678     999
CTETRA     11517       1    2824    1003    2829     219
CTETRA     11518       1    1678     838     832     254
CTETRA     11519       1    3765    3766    2606     628
CTETRA     11520       1    2448     672     338     341
CTETRA     11521       1    2318     968     438     999
CTETRA     11522       1     628     540     538     924
CTETRA     11523       1    3956    2752    2753     728
CTETRA     11524       1    3882     836     991    1051
CTETRA     11525       1    1456     232    1458     233
CTETRA     11526       1    1347    1351    1350     815
CTETRA     11527       1     452     371    1088     118
CTETRA     11528       1    3779    1354    2630    2631
CTETRA     11529       1    3123    1456    3124     884
CTETRA     11530       1    1354    2630    2631     815
CTETRA     11531       1    3913    3914    1429    2768
CTETRA     11532       1    2742    1142     429     804
CTETRA     11533       1    2621    2622    2642    1092
CTETRA     11534       1    1698    1170    1132     234
CTETRA     11535       1    2683     922    1167    1043
CTETRA     11536       1    2855     976    1108     839
CTETRA     11537       1    2850    2853    2852     954
CTETRA     11538       1     212     311     880     976
CTETRA     11539       1    2849    2852    2851     955
CTETRA     11540       1    3799    2676    1421    1043
CTETRA     11541       1     658     922    1043     831
CTETRA     11542       1    2683    2693     636    1043
CTETRA     11543       1    1425    1428    1043     634
CTETRA     11544       1    3799    1424    2677    1043
CTETRA     11545       1    3961    2741    2742     804
CTETRA     11546       1    3600    2348    1018     695
CTETRA     11547       1     491     889     126     920
CTETRA     11548       1    2712    1069    1068    1199
CTETRA     11549       1    1375    2658    2597     928
CTETRA     11550       1    2596    2657    2656     403
CTETRA     11551       1    2744    2750    2745     404
CTETRA     11552       1    2453    1155    2472     185
CTETRA     11553       1    2877    2878    2880    1214
CTETRA     11554       1    3598    1019    3599     987
CTETRA     11555       1    2874    2876    2880    1103
CTETRA     11556       1    2182    2183    2186    1029
CTETRA     11557       1    2190    2734    2193    1120
CTETRA     11558       1    2860    2863    1026     828
CTETRA     11559       1    2616    2617    2713     929
CTETRA     11560       1    2445    2449     338     674
CTETRA     11561       1    3788    1391    3789    2714
CTETRA     11562       1    3996    3697    3687     319
CTETRA     11563       1    2096     433    2425     421
CTETRA     11564       1    2191    2195    2194     864
CTETRA     11565       1    1388    1392    1391     624
CTETRA     11566       1    2616    2713    2709    1214
CTETRA     11567       1    1319     105    2485      69
CTETRA     11568       1    2451    2479    2481     105
CTETRA     11569       1    2134    2138    2137    1161
CTETRA     11570       1     397    1164     974     398
CTETRA     11571       1    1334    1339    1335     829
CTETRA     11572       1     446     447    1117    1114
CTETRA     11573       1    3789    2714    1391    2715
CTETRA     11574       1    3790    2715    1394     442
CTETRA     11575       1    1279    1289     339     341
CTETRA     11576       1    2766     801     400     658
CTETRA     11577       1    3794    1406    1409    2724
CTETRA     11578       1    1018     446     987     399
CTETRA     11579       1    1382     409    1383     587
CTETRA     11580       1    3874      30     843      36
CTETRA     11581       1    3500     290    1140     289
CTETRA     11582       1    3945    2154    2151    2859
CTETRA     11583       1    1902     888    1903     125
CTETRA     11584       1     749     844     711     506
CTETRA     11585       1     586     587     402      37
CTETRA     11586       1    1719     413    1722     503
CTETRA     11587       1      36     718      37      25
CTETRA     11588       1    3922    2227    2770     763
CTETRA     11589       1     409     718     639     707
CTETRA     11590       1    3117    1383     409     707
CTETRA     11591       1    3118      31      25     707
CTETRA     11592       1    2221    2812    2813     913
CTETRA     11593       1    2218    2222    2221     913
CTETRA     11594       1    3100    2280    3101     610
CTETRA     11595       1    2806    2810    2809     167
CTETRA     11596       1    2220    2700    2223     525
CTETRA     11597       1    3329    3450    3999     609
CTETRA     11598       1    1644     190     607     608
CTETRA     11599       1    3926    3927    2212    2809
CTETRA     11600       1    2209    2213    2212     167
CTETRA     11601       1    1960      72      68     141
CTETRA     11602       1    3183    3184    1739    1502
CTETRA     11603       1    2216    2217    2220     526
CTETRA     11604       1    3253     113    1946      68
CTETRA     11605       1    2175    2755    2756     622
CTETRA     11606       1    2171    2175    2174     622
CTETRA     11607       1    3870    3871    2178    1051
CTETRA     11608       1    3879    3880    2842     685
CTETRA     11609       1    2840     685     837     683
CTETRA     11610       1    3245      43    1955     469
CTETRA     11611       1    1956      42    1957      44
CTETRA     11612       1    2953    3723    3724    1101
CTETRA     11613       1    2172    2839     622     635
CTETRA     11614       1    3952    2175    2172    2839
CTETRA     11615       1      42      43      72      44
CTETRA     11616       1    2817    1003    2824     219
CTETRA     11617       1    1228     156     935     796
CTETRA     11618       1    2622    2623    2644     955
CTETRA     11619       1    2851    2852    2858    1158
CTETRA     11620       1    2648     212     954     880
CTETRA     11621       1    3240      68      72      16
CTETRA     11622       1    3451     673     607     190
CTETRA     11623       1    3245      43     523       9
CTETRA     11624       1    3896    1340    1343    2866
CTETRA     11625       1    3241      72    3242      16
CTETRA     11626       1    3242    1958      42      72
CTETRA     11627       1    1737    1501     654     512
CTETRA     11628       1    3050    1237     654     512
CTETRA     11629       1    3050    3051    1501     654
CTETRA     11630       1    1237     346     654     512
CTETRA     11631       1     904     796     950     797
CTETRA     11632       1    2891     346     391     654
CTETRA     11633       1     427    1164     425     319
CTETRA     11634       1    2891    1218     346     654
CTETRA     11635       1    2891    1229    1218     654
CTETRA     11636       1    3290    2965    2964    1618
CTETRA     11637       1    1229     391     796     654
CTETRA     11638       1    3882    2756     836    1051
CTETRA     11639       1     685     837     683     697
CTETRA     11640       1    3880     508    3881     836
CTETRA     11641       1    2754     837     836     622
CTETRA     11642       1    1739    1754    1753     950
CTETRA     11643       1    2175    2756    2176     622
CTETRA     11644       1    2082    2084    2085     358
CTETRA     11645       1    2892    3648    2893     643
CTETRA     11646       1    2636    2643    2637    1003
CTETRA     11647       1    2954    2955    1256     601
CTETRA     11648       1    2958    2959    1255      39
CTETRA     11649       1    2957    3728    2958     331
CTETRA     11650       1     489     126     123     920
CTETRA     11651       1    2957    3727    3728     331
CTETRA     11652       1     156     598     935     157
CTETRA     11653       1    3310    1641    1640     719
CTETRA     11654       1    3044    3045    1492     453
CTETRA     11655       1    1352    1356    1355     782
CTETRA     11656       1    1366    2668    1369    1004
CTETRA     11657       1     236     118     235      97
CTETRA     11658       1    2207     653    2210     179
CTETRA     11659       1    2757    2758    2872     864
CTETRA     11660       1    2204     653    2207     179
CTETRA     11661       1    1691     100      99     236
CTETRA     11662       1    2674    2675     307     653
CTETRA     11663       1    1352    1353    1356     781
CTETRA     11664       1    3385    3386    3512    1179
CTETRA     11665       1    3385    3512     443    1179
CTETRA     11666       1    2674    2675    2729     307
CTETRA     11667       1    2636     781    1003    1004
CTETRA     11668       1    1358    1361    2833     782
CTETRA     11669       1    1734     966    1735     967
CTETRA     11670       1    3159    1575    1159       5
CTETRA     11671       1    3170    1665    1667     749
CTETRA     11672       1    2205     307    2675     653
CTETRA     11673       1    3891    2833    2826     782
CTETRA     11674       1    3396    1725    3397     849
CTETRA     11675       1    3891    1355    1358     782
CTETRA     11676       1    2834    2835     403     928
CTETRA     11677       1    3493    3494    2311     476
CTETRA     11678       1    2657    2658    2666     403
CTETRA     11679       1    3756    1283    3757    2499
CTETRA     11680       1    3177    2318    3178     999
CTETRA     11681       1    1365    1366    1369    1004
CTETRA     11682       1    2817    2825    1003     781
CTETRA     11683       1     558     302     326     324
CTETRA     11684       1    1361    2833     782    1005
CTETRA     11685       1    1362     781    1003     782
CTETRA     11686       1    3494    3495    2310     365
CTETRA     11687       1    2657    2666    2665     403
CTETRA     11688       1    3221    1843    3222    1532
CTETRA     11689       1    1843     890     517     518
CTETRA     11690       1    3081    2239    2262     518
CTETRA     11691       1     630     487     486     485
CTETRA     11692       1    1532     560     890     518
CTETRA     11693       1     990     710     971     590
CTETRA     11694       1    1673     710     709     172
CTETRA     11695       1    3934    3935    2188    2871
CTETRA     11696       1    3993    3404    3768     485
CTETRA     11697       1    3815    3768    2236    2604
CTETRA     11698       1    1647    1648    1653     316
CTETRA     11699       1    3000    3596    3001     670
CTETRA     11700       1    3996     432    3407     319
CTETRA     11701       1    3004    1462    1461     370
CTETRA     11702       1    3010     911    3011     188
CTETRA     11703       1    2204     307    2205     653
CTETRA     11704       1    2998    3598     401    1019
CTETRA     11705       1    2092    2093    2096     421
CTETRA     11706       1     709     750     918     297
CTETRA     11707       1    3013    3014     432     319
CTETRA     11708       1    3015    3688    3689     427
CTETRA     11709       1    1667     749     747     844
CTETRA     11710       1     832     184     709     750
CTETRA     11711       1    3865    3866    1725     705
CTETRA     11712       1     749     640     295     748
CTETRA     11713       1    3169     749     844     711
CTETRA     11714       1    3531    2307    2306     322
CTETRA     11715       1     990     278      57     509
CTETRA     11716       1    2674     306    2680     653
CTETRA     11717       1    1282     340     936     986
CTETRA     11718       1     747     709     748     297
CTETRA     11719       1     567     570     559     393
CTETRA     11720       1    3825    2211    2208     653
CTETRA     11721       1    3463     638     637     633
CTETRA     11722       1    1709     873     592     872
CTETRA     11723       1    3027    1095    1472     214
CTETRA     11724       1     638    1145     298     299
CTETRA     11725       1    3960     429    1142     430
CTETRA     11726       1    3675    2422    1312    2484
CTETRA     11727       1     637    1145     951     727
CTETRA     11728       1    1045     785     249     564
CTETRA     11729       1    2287    1058    1145     299
CTETRA     11730       1    3461     637    3462    1145
CTETRA     11731       1    3670    2481    1318    2482
CTETRA     11732       1    3462     638    2288    1145
CTETRA     11733       1    1884     891    1112    1042
CTETRA     11734       1    3460    1145    2287     430
CTETRA     11735       1    3261    1578    1579     366
CTETRA     11736       1    3958     951    1130     722
CTETRA     11737       1     245     247     246     726
CTETRA     11738       1    3756    1283    2499    2588
CTETRA     11739       1    1629     881     925    1147
CTETRA     11740       1    3468      47    1197     926
CTETRA     11741       1    3772    1375    2597     405
CTETRA     11742       1    3812     959    3813     586
CTETRA     11743       1    2665     403     219     218
CTETRA     11744       1    2596    2599    2597     405
CTETRA     11745       1     925     881     993    1146
CTETRA     11746       1    3576    1900      28     943
CTETRA     11747       1     800     798     993     482
CTETRA     11748       1    1914    1930    1929     604
CTETRA     11749       1    3740    1333    2517    2527
CTETRA     11750       1    3788    1388    1391    2714
CTETRA     11751       1    2781    2782    2800    1094
CTETRA     11752       1    3579    1556    1555     373
CTETRA     11753       1    1398    1402    1401    1094
CTETRA     11754       1     805     891     943     803
CTETRA     11755       1      28    1147     803     892
CTETRA     11756       1    3339     881    1630     799
CTETRA     11757       1    1629     905    1147     926
CTETRA     11758       1    3321    3428    1173    1147
CTETRA     11759       1    1622    1629     925     926
CTETRA     11760       1    3340    3471    3341     925
CTETRA     11761       1    3341    1622    1629     925
CTETRA     11762       1     336    1198     665     597
CTETRA     11763       1     160     164     161     159
CTETRA     11764       1    2690     733     723     734
CTETRA     11765       1    2742    2765    2769    1143
CTETRA     11766       1    3456    3963    3457     975
CTETRA     11767       1    3804    1436    3113     616
CTETRA     11768       1    2691    2702    2698     923
CTETRA     11769       1    1799     755    1800     596
CTETRA     11770       1     664     597     665     661
CTETRA     11771       1    1800     755     669     596
CTETRA     11772       1    3442    3760    3443     200
CTETRA     11773       1    3825    2675    2679     653
CTETRA     11774       1    1011     467     161    1012
CTETRA     11775       1    3041    3375    3042     371
CTETRA     11776       1    1648    1651    1649    1064
CTETRA     11777       1    3037     647    3372    1132
CTETRA     11778       1    3008    3968    3379     182
CTETRA     11779       1    3040    1170    1696     237
CTETRA     11780       1    3194    1750    1503    1508
CTETRA     11781       1    1691    1692    1694     236
CTETRA     11782       1    1240     866     353     729
CTETRA     11783       1    1765     862     899     712
CTETRA     11784       1    1241    1035     197     822
CTETRA     11785       1    2970    3358    3357    1689
CTETRA     11786       1    2969    3358    2970     879
CTETRA     11787       1    1764     822     858     823
CTETRA     11788       1    1614     197    1035     646
CTETRA     11789       1    3274    2923    1614     197
CTETRA     11790       1    3274    2925     197     646
CTETRA     11791       1     641     646     204     788
CTETRA     11792       1    3208    1839    1519    1522
CTETRA     11793       1    2822    1108     840     839
CTETRA     11794       1    2819     212    1108     311
CTETRA     11795       1    2150     311    2153     880
CTETRA     11796       1    2641    2648    2647     212
CTETRA     11797       1    2149    2150    2153     880
CTETRA     11798       1    3946    2157    2154     311
CTETRA     11799       1    3946    2154    2859     311
CTETRA     11800       1    2150    2151     311    1158
CTETRA     11801       1    2151    2859     311    1158
CTETRA     11802       1    2621     812     813    1092
CTETRA     11803       1    1344    1028    1347    1027
CTETRA     11804       1    3245     362       8     980
CTETRA     11805       1    1972    1987    1986      44
CTETRA     11806       1    1350    1353     814     815
CTETRA     11807       1    3780    2630    1354     815
CTETRA     11808       1    3649    3650    2345     320
CTETRA     11809       1    3147    1485    1481     452
CTETRA     11810       1    3244    1557    1569     362
CTETRA     11811       1    3813     959     409     586
CTETRA     11812       1    3373    1698    1170    1132
CTETRA     11813       1    3814     409    1382     587
CTETRA     11814       1    3038    1484    1482    1132
CTETRA     11815       1    1347    1350     814     815
CTETRA     11816       1    3780    2635    2630     815
CTETRA     11817       1    3545    3546    2318    1176
CTETRA     11818       1    1869    1113    1042     897
CTETRA     11819       1     802     803     376     795
CTETRA     11820       1     867     702     376     818
CTETRA     11821       1     891    1113      28     892
CTETRA     11822       1    2251     865     867     868
CTETRA     11823       1    1138     970    1177     303
CTETRA     11824       1     254     999     170     965
CTETRA     11825       1    2271      47      48     373
CTETRA     11826       1    3070    1249    1212     996
CTETRA     11827       1     127    1081     129    1082
CTETRA     11828       1    3428    2248    1173     896
CTETRA     11829       1    1899    1900     805     891
CTETRA     11830       1    1885      28     891    1113
CTETRA     11831       1    2574     720    2575     680
CTETRA     11832       1    2578    2591    2590    1114
CTETRA     11833       1    2438    2449    2445     674
CTETRA     11834       1    2445     674     720     675
CTETRA     11835       1    2449     338     674    1114
CTETRA     11836       1    2417    2418    2469     386
CTETRA     11837       1    3287    1592    2902     584
CTETRA     11838       1    3305    2948    2947    1087
CTETRA     11839       1    3305    2947    1590    1087
CTETRA     11840       1    3304    1596    1590    1083
CTETRA     11841       1    1217    1224     997    1015
CTETRA     11842       1    3131    1020    3132     387
CTETRA     11843       1    1804    1081     128    1206
CTETRA     11844       1    1773     579     581    1081
CTETRA     11845       1    2943    1247    1249    1212
CTETRA     11846       1    3303    3304    2945    1596
CTETRA     11847       1    2911    1601      91      92
CTETRA     11848       1     581    1059     582      50
CTETRA     11849       1    1804     998    1081    1206
CTETRA     11850       1    2993    2994    1443    1098
CTETRA     11851       1    2909    2910      91      92
CTETRA     11852       1    2911    1599    1601      92
CTETRA     11853       1    3303    2944    1598     127
CTETRA     11854       1    3001    3596    3595     671
CTETRA     11855       1    1920    1921     502     496
CTETRA     11856       1    1905     498    1920     496
CTETRA     11857       1     826     527     673     528
CTETRA     11858       1     764     841     767     501
CTETRA     11859       1    1905     242     250     496
CTETRA     11860       1     698     530     529     501
CTETRA     11861       1    3299    3300    2938      60
CTETRA     11862       1    3963     977     975     395
CTETRA     11863       1    1887     561     888     889
CTETRA     11864       1    3289    3290    2963    1619
CTETRA     11865       1    1888    1160     888     561
CTETRA     11866       1    3440     563    2261     631
CTETRA     11867       1    3880    2754    2842     837
CTETRA     11868       1    3260    3261    1579    1159
CTETRA     11869       1    3171    2337    2331     411
CTETRA     11870       1     562    1056    1057     564
CTETRA     11871       1    3266    3267    1180     779
CTETRA     11872       1    3568    2336    2330     927
CTETRA     11873       1    3168    3169    1667     844
CTETRA     11874       1    3439     562    3440     631
CTETRA     11875       1    1565     145     274    1061
CTETRA     11876       1    1666    1670    1668     846
CTETRA     11877       1    1845    1054    1527     770
CTETRA     11878       1    3569     927     413     368
CTETRA     11879       1     562     563     631    1056
CTETRA     11880       1    1045    1054     560    1166
CTETRA     11881       1     346     259     260     343
CTETRA     11882       1    1669    1678     252     257
CTETRA     11883       1    2081    2082    2085     359
CTETRA     11884       1    1768     949    1783     655
CTETRA     11885       1    1782    1783    1122     655
CTETRA     11886       1    1434     400    1438     431
CTETRA     11887       1     259     345    1187     342
CTETRA     11888       1    2293     550    2295     520
CTETRA     11889       1     550     552     544     520
CTETRA     11890       1     544     552     967     520
CTETRA     11891       1    3647    3648    2347     357
CTETRA     11892       1    3154    2294     909     550
CTETRA     11893       1    3961    2742     429     804
CTETRA     11894       1    2969    3359    3358     902
CTETRA     11895       1    3814    1382    2598     587
CTETRA     11896       1    3460    3959     951     430
CTETRA     11897       1     429     804    1142     202
CTETRA     11898       1    3960    3961    2742     429
CTETRA     11899       1    3043    1692     453     371
CTETRA     11900       1    3959    2769    1130    1142
CTETRA     11901       1    3803    1433    1436    2612
CTETRA     11902       1     959     409     586     718
CTETRA     11903       1    1423    2775    2777     831
CTETRA     11904       1    2742    2769    1142    1143
CTETRA     11905       1    1433     431    1436     620
CTETRA     11906       1     429     977     804     202
CTETRA     11907       1     764     841     499     785
CTETRA     11908       1    2599     402     587     405
CTETRA     11909       1    1434     621     400     431
CTETRA     11910       1    2610    2611    2694     620
CTETRA     11911       1    3353    1697    1699     546
CTETRA     11912       1    3760     200    3761     615
CTETRA     11913       1     314     957      52     315
CTETRA     11914       1    3910    1420    1417    2778
CTETRA     11915       1    2892    3649    3648     361
CTETRA     11916       1     977     400     619     431
CTETRA     11917       1    1938     825     610     606
CTETRA     11918       1    3026    1708    3366     214
CTETRA     11919       1     503     372     505     706
CTETRA     11920       1    3257      78    3258      53
CTETRA     11921       1    1582      53     304       1
CTETRA     11922       1    3024    3365    3025    1106
CTETRA     11923       1    3024    3025    1476    1106
CTETRA     11924       1    3249    1559    1562    1062
CTETRA     11925       1    2173    2174    2177    1036
CTETRA     11926       1    1575     304    1159       5
CTETRA     11927       1    3805    2609    2173    1036
CTETRA     11928       1     304       1      53      54
CTETRA     11929       1    3260    2055     593     594
CTETRA     11930       1     331     332    1211     164
CTETRA     11931       1    3727     331     332    1211
CTETRA     11932       1     466     462    1154    1152
CTETRA     11933       1    1741      18      17     576
CTETRA     11934       1    3331    3487    3332    1638
CTETRA     11935       1    2901    2902    1226      49
CTETRA     11936       1    2895     933    3645     160
CTETRA     11937       1    2895    3645    3644     160
CTETRA     11938       1     158     166     934     159
CTETRA     11939       1    2909    1224    1223    1009
CTETRA     11940       1    3518    1139    2296     286
CTETRA     11941       1    1775    1790    1789     128
CTETRA     11942       1    1774    1775    1789     128
CTETRA     11943       1    3283    2908    1597      92
CTETRA     11944       1    2910    1599    2911      92
CTETRA     11945       1    1775    1776    1790    1090
CTETRA     11946       1    3151     568    1586     434
CTETRA     11947       1    3387    3515    3514     435
CTETRA     11948       1    3074    1253    3075     336
CTETRA     11949       1    3306    2950    1591    1594
CTETRA     11950       1    3075    1516    1518    1024
CTETRA     11951       1    1815    1816    1830    1198
CTETRA     11952       1    2302    2303     434     435
CTETRA     11953       1     312     434    1138     441
CTETRA     11954       1    1825     210     572     571
CTETRA     11955       1    3075    1518     336    1024
CTETRA     11956       1    2547    2550     462    1210
CTETRA     11957       1    1736    1494    1737     512
CTETRA     11958       1     862     899     712     860
CTETRA     11959       1     450     507     240     377
CTETRA     11960       1    3081    2262     560     518
CTETRA     11961       1    3221    1844    1843    1532
CTETRA     11962       1    3223    1842    1526    1533
CTETRA     11963       1    3729    2543    3730    1151
CTETRA     11964       1     510    1132     507     374
CTETRA     11965       1    1700    1132     647     234
CTETRA     11966       1    1218    1237     346     654
CTETRA     11967       1    3082    2261    2260    1054
CTETRA     11968       1    3447    1643     766     767
CTETRA     11969       1    1877    1878    1892     715
CTETRA     11970       1    3448    2253    2259     766
CTETRA     11971       1    3049    3050    1494     512
CTETRA     11972       1    1642    1643    1646     190
CTETRA     11973       1    1863    1864    1878     717
CTETRA     11974       1     941      29     824    1174
CTETRA     11975       1    2995    1017    1098     907
CTETRA     11976       1    1647     960     317    1048
CTETRA     11977       1    1047    1048     317     225
CTETRA     11978       1    2933    1612    1610     196
CTETRA     11979       1    3428    1190    1173    1147
CTETRA     11980       1    1881    1882    1896     743
CTETRA     11981       1    1047     216    1063     871
CTETRA     11982       1    1625    1197     126     926
CTETRA     11983       1    1710    1711     872    1046
CTETRA     11984       1    1451    1017    1040    1048
CTETRA     11985       1    1476    1002    1106     214
CTETRA     11986       1    3106    3107    1549     511
CTETRA     11987       1    2288     638     511     299
CTETRA     11988       1    3328    3450    1641     607
CTETRA     11989       1    1909    1924    1923     825
CTETRA     11990       1    1940     122    1541    1178
CTETRA     11991       1    1921    1922    1936     500
CTETRA     11992       1    1889     250    1904     245
CTETRA     11993       1    1891    1892    1906     827
CTETRA     11994       1    1879      83     810     717
CTETRA     11995       1    3366    1706    1095     214
CTETRA     11996       1    3092    3093    1535     868
CTETRA     11997       1    1535    1538     865      93
CTETRA     11998       1     228     176     175     703
CTETRA     11999       1    1864    1879    1878     717
CTETRA     12000       1    1707    1711    1063     873
CTETRA     12001       1    1042     897     868      93
CTETRA     12002       1    1708     214     873     216
CTETRA     12003       1    3411    2256    2254     809
CTETRA     12004       1    3090    1536     178     177
CTETRA     12005       1     214     226     215     217
CTETRA     12006       1    1979    1994    1993     143
CTETRA     12007       1     409     587     586     718
CTETRA     12008       1    1706     214    1708     216
CTETRA     12009       1     230     221     227     217
CTETRA     12010       1    3292    2926    3966    1080
CTETRA     12011       1     145    1025     364     363
CTETRA     12012       1    1949    1964    1963     113
CTETRA     12013       1    1208    1012     161    1209
CTETRA     12014       1     937     756      18     758
CTETRA     12015       1    1953    1954    1968     469
CTETRA     12016       1    3245    3246    1561       8
CTETRA     12017       1    3770    1381    2599     587
CTETRA     12018       1    1968    1969    1983    1109
CTETRA     12019       1     354     348     355     347
CTETRA     12020       1    3582    3583    1990     142
CTETRA     12021       1    1768    1769     759     950
CTETRA     12022       1    2894     933    2895     932
CTETRA     12023       1    1738     950     654     797
CTETRA     12024       1    1230     937     756      18
CTETRA     12025       1    1987    1988    2002     480
CTETRA     12026       1     332     161     164     165
CTETRA     12027       1    3770    1382    1381     587
CTETRA     12028       1     595     455     593     305
CTETRA     12029       1    2504     688    2515     535
CTETRA     12030       1    2127    2516    2502     688
CTETRA     12031       1    2363     535     688     471
CTETRA     12032       1    1983    1998    1997    1109
CTETRA     12033       1    2472     676    2478     185
CTETRA     12034       1    3100     610    1544    1178
CTETRA     12035       1    2049    2065    2064     457
CTETRA     12036       1    1984    1985    1999    1033
CTETRA     12037       1    2595    1141    2600    1195
CTETRA     12038       1    2017    2033    2032     931
CTETRA     12039       1    2452    2460    2453     471
CTETRA     12040       1      38     964      40     645
CTETRA     12041       1    2958      39    1254      40
CTETRA     12042       1    2595    2656    1195     402
CTETRA     12043       1    1374    1377     404     405
CTETRA     12044       1    2956     331    2957     599
CTETRA     12045       1      39    1126     333    1128
CTETRA     12046       1    2683    2693    2691     636
CTETRA     12047       1    2042    2058    2057     778
CTETRA     12048       1      41     759     163     157
CTETRA     12049       1    1799      41     596    1071
CTETRA     12050       1    3124    1456    1457     884
CTETRA     12051       1    2043    2059    2058    1133
CTETRA     12052       1    3263    2058    2059     778
CTETRA     12053       1    3575    1871    3576      27
CTETRA     12054       1    3274    2924    2923     197
CTETRA     12055       1    1679    1682    1680     147
CTETRA     12056       1    3041    1694     371     237
CTETRA     12057       1    1658    1660    1659    1091
CTETRA     12058       1      57      63      58      56
CTETRA     12059       1    1824     773    1839     946
CTETRA     12060       1    3145    1482    3146     510
CTETRA     12061       1    1340    1341    1344    1027
CTETRA     12062       1    2627     929     930     830
CTETRA     12063       1    3430    1125    1190    1189
CTETRA     12064       1    1192     896     868    1204
CTETRA     12065       1    3582    1961    1976     141
CTETRA     12066       1    3349     120    1704     121
CTETRA     12067       1    1631     803     867     376
CTETRA     12068       1    1869    1870    1113     897
CTETRA     12069       1    1884    1113     891    1042
CTETRA     12070       1     581     774     129    1059
CTETRA     12071       1    2070    2073    2072    1172
CTETRA     12072       1     705     412     372     328
CTETRA     12073       1    2525    2529    2526     263
CTETRA     12074       1    3715    2069    2526    2529
CTETRA     12075       1    1727     322     514     327
CTETRA     12076       1    2306    2308     322     323
CTETRA     12077       1    3717    2087    3718    2537
CTETRA     12078       1    3396     514    1727     322
CTETRA     12079       1    2308     321    2309     906
CTETRA     12080       1    3872     988     282    1036
CTETRA     12081       1    1112     175     818     703
CTETRA     12082       1    3845    2640    2649     869
CTETRA     12083       1    2492    2494    2493     419
CTETRA     12084       1    2079    2088     979     543
CTETRA     12085       1    1061     432     396     877
CTETRA     12086       1    2534     264     461     962
CTETRA     12087       1    2534    2535    2547     461
CTETRA     12088       1     671     382     670     381
CTETRA     12089       1    1153     962     461    1196
CTETRA     12090       1    1682     370    1683     147
CTETRA     12091       1    2384    2413    1097     264
CTETRA     12092       1     466    1154     462     460
CTETRA     12093       1    2405    2415    2413    1096
CTETRA     12094       1    2342    1137    2343     460
CTETRA     12095       1    1770    1771     574     576
CTETRA     12096       1     160     598     156     159
CTETRA     12097       1    3700    2098    2576     580
CTETRA     12098       1    2091    2097    2424     421
CTETRA     12099       1    2121    2584     386     470
CTETRA     12100       1    2466    2471    2470     470
CTETRA     12101       1     160     937     156     598
CTETRA     12102       1    2124    2571    2566    1182
CTETRA     12103       1    3615    2122    2470    2471
CTETRA     12104       1     575     576     574     758
CTETRA     12105       1    1784    1785     755     575
CTETRA     12106       1    2648    2651     212     880
CTETRA     12107       1    3840    2143    2146    2652
CTETRA     12108       1    2638    2647    2639    1108
CTETRA     12109       1    2642     954     211    1092
CTETRA     12110       1     575     163     598     758
CTETRA     12111       1    1785     755     575     574
CTETRA     12112       1    2935    2936     205     824
CTETRA     12113       1    1607    1608     824      23
CTETRA     12114       1    1175     776    1089    1174
CTETRA     12115       1    3124    1441    3125     884
CTETRA     12116       1    2137    2141    2140     256
CTETRA     12117       1    1792      29     941      24
CTETRA     12118       1     647     374     887     234
CTETRA     12119       1    2164    2167    2664     532
CTETRA     12120       1    3957     951    3958     722
CTETRA     12121       1    2164    2165    2168     532
CTETRA     12122       1    3828    2738    2736     657
CTETRA     12123       1    2725    2726    2728    1194
CTETRA     12124       1     563    1045     560    1056
CTETRA     12125       1    3765     723     629     628
CTETRA     12126       1    1874     994    1889     248
CTETRA     12127       1    2205     657     307     650
CTETRA     12128       1    3827    2202    3828    2736
CTETRA     12129       1     630     486     487     626
CTETRA     12130       1    1266    1080     572     208
CTETRA     12131       1    3592     786    1796     787
CTETRA     12132       1    1078    1076     207    1079
CTETRA     12133       1     607     190     827     608
CTETRA     12134       1    1937     606    1546     528
CTETRA     12135       1    3926    2814    2809     167
CTETRA     12136       1    1892    1893     761     715
CTETRA     12137       1    1038     762      33      34
CTETRA     12138       1    2215    2218    2814     167
CTETRA     12139       1     498     827     826     501
CTETRA     12140       1    3921    2227    2751    2770
CTETRA     12141       1     764     498     499     501
CTETRA     12142       1    1878     760    1893     715
CTETRA     12143       1    2224    2228    2227     763
CTETRA     12144       1    3124    3125    1652     884
CTETRA     12145       1    1876     764     716     715
CTETRA     12146       1      88     178    1135      90
CTETRA     12147       1    3213    1852    3214    1537
CTETRA     12148       1    3090    3091    1536     177
CTETRA     12149       1     730    1183      88     178
CTETRA     12150       1    3316    1634    3419    1635
CTETRA     12151       1    1891     498     764     827
CTETRA     12152       1     553     784     704     740
CTETRA     12153       1    3735    1295    1293    1162
CTETRA     12154       1    2410     287    1208    1196
CTETRA     12155       1    1295     961    1296     287
CTETRA     12156       1    1300    2411    2387    1162
CTETRA     12157       1    1294    1295    1300    1162
CTETRA     12158       1    1294    2387    1303    1162
CTETRA     12159       1    3735    2545    2488    1162
CTETRA     12160       1    3098    2267    2268    1191
CTETRA     12161       1    3333    3483     704     973
CTETRA     12162       1    2143    2147    2146     880
CTETRA     12163       1    3333    3485     973     745
CTETRA     12164       1    3482    2268    2267     704
CTETRA     12165       1    2140    2143    2645     256
CTETRA     12166       1    3839    2645    2143    2652
CTETRA     12167       1    3487      32     885      33
CTETRA     12168       1    2644    2648     954     880
CTETRA     12169       1    3333     704    1636     973
CTETRA     12170       1     730     178      88      90
CTETRA     12171       1    2144    2147     256    1158
CTETRA     12172       1    1396    2785    2784    1034
CTETRA     12173       1    2861    2863    2867    1026
CTETRA     12174       1    1388    2618     829     624
CTETRA     12175       1    2860     929     623     828
CTETRA     12176       1    3928    3929    2206    2790
CTETRA     12177       1    3103    2284    2278     495
CTETRA     12178       1    1387    2864    1390     828
CTETRA     12179       1    1388    1389    1392     624
CTETRA     12180       1    2860     929    2877     623
CTETRA     12181       1    3330    1639    1640     768
CTETRA     12182       1    1922    1937    1936     500
CTETRA     12183       1    2617    2713     929     623
CTETRA     12184       1    3490     609    2281     610
CTETRA     12185       1    1305    1306    1315      65
CTETRA     12186       1    3328    3451    3450     607
CTETRA     12187       1     768     610      34     611
CTETRA     12188       1     719     762     807     808
CTETRA     12189       1     716     856     717     808
CTETRA     12190       1    3233    3234    1937    1547
CTETRA     12191       1     716     715     608     808
CTETRA     12192       1    3488     768    2280      32
CTETRA     12193       1    1643     190    1644     608
CTETRA     12194       1     760     762     608     808
CTETRA     12195       1    3578    1916    3579     373
CTETRA     12196       1    3428    1147    1629    1189
CTETRA     12197       1    3275    2922    1613    1035
CTETRA     12198       1    1916     373    1215     301
CTETRA     12199       1    3344    3466    3465    1197
CTETRA     12200       1    2525    2530      80     265
CTETRA     12201       1    1159     366       5     504
CTETRA     12202       1       5       7     504       6
CTETRA     12203       1    2906    1595    1216     129
CTETRA     12204       1    1859    1860    1045    1166
CTETRA     12205       1    3170    1666    1665     847
CTETRA     12206       1    1886     561    1887     889
CTETRA     12207       1    1887     888    1902     889
CTETRA     12208       1    1755     904     935     576
CTETRA     12209       1    3054    3055    1498      51
CTETRA     12210       1    1740     935      18     576
CTETRA     12211       1    2895     933     160     159
CTETRA     12212       1    3170    2330    2336     927
CTETRA     12213       1    2895     160    2896     156
CTETRA     12214       1     575     904     576     758
CTETRA     12215       1     824      23      29      86
CTETRA     12216       1    2940    1602     790     776
CTETRA     12217       1    3099    1541     122    1178
CTETRA     12218       1    1243     995    1175     996
CTETRA     12219       1    3642    2355    2356     939
CTETRA     12220       1    3300     776    2939      60
CTETRA     12221       1    3110     940    3651    1100
CTETRA     12222       1    3109    3110    1298    1100
CTETRA     12223       1    2940     790    1243    1175
CTETRA     12224       1    2376    2382     690     642
CTETRA     12225       1    2507    2514    2508     474
CTETRA     12226       1    2371    2375    2374     690
CTETRA     12227       1    1243    1259    1175     995
CTETRA     12228       1    1321    1333    2527     473
CTETRA     12229       1    2115    2116    2117     534
CTETRA     12230       1    1200    1089    1175     776
CTETRA     12231       1    3104    1207     502     494
CTETRA     12232       1     247     246    1121     244
CTETRA     12233       1    2532     842    2541     266
CTETRA     12234       1    2385    2386    2409     962
CTETRA     12235       1    3963    2883     977     395
CTETRA     12236       1    2656     403    2665     220
CTETRA     12237       1    3077     819    1263     209
CTETRA     12238       1    2105    2108    2107      81
CTETRA     12239       1    2388    2390    2389     692
CTETRA     12240       1    2960    2961     820    1187
CTETRA     12241       1    1122     342     333    1128
CTETRA     12242       1    3730      38    1151     349
CTETRA     12243       1    2533    2541    2539     266
CTETRA     12244       1    3730    3731      38     351
CTETRA     12245       1    2086    2544    2536     543
CTETRA     12246       1     361     358     357     360
CTETRA     12247       1    3403     345    2961    1187
CTETRA     12248       1    2395     848     842     692
CTETRA     12249       1    1293    1302    1301     983
CTETRA     12250       1     122    1178     746      35
CTETRA     12251       1      40     648     334     166
CTETRA     12252       1    1282     936    1285     986
CTETRA     12253       1    2579    2586    2591     982
CTETRA     12254       1    1272     672    2570     194
CTETRA     12255       1    1078    1127    1213    1075
CTETRA     12256       1    2578    2583    2582     674
CTETRA     12257       1    2955     601     332     335
CTETRA     12258       1    1274    2447    1277     341
CTETRA     12259       1    1828    1071    1024     819
CTETRA     12260       1    1244      39     820     819
CTETRA     12261       1    1782    1122    1797     344
CTETRA     12262       1    2113    2128    2365     536
CTETRA     12263       1    2129    2468    2455    1202
CTETRA     12264       1    1797    1812    1070    1071
CTETRA     12265       1    2504    2559    2558     471
CTETRA     12266       1    1888    1903     888     245
CTETRA     12267       1    2473    2477    2475     681
CTETRA     12268       1    1888     888    1160     245
CTETRA     12269       1    2551    2562    2561    1202
CTETRA     12270       1     888     561    1160     920
CTETRA     12271       1    3992    3722    3403    3732
CTETRA     12272       1    1627     123     489     126
CTETRA     12273       1     637     722     632     539
CTETRA     12274       1     539     541     727     626
CTETRA     12275       1    3406     489    1627     123
CTETRA     12276       1     539     541     487     484
CTETRA     12277       1    3436    3768    3767     485
CTETRA     12278       1    2372    2376    2375     689
CTETRA     12279       1    2520    2521    2530     475
CTETRA     12280       1    3435    3768    3436     485
CTETRA     12281       1    2788    2793    2794     651
CTETRA     12282       1    2705    2731    2732    1041
CTETRA     12283       1    3458     429    3459     241
CTETRA     12284       1     689     690     475     642
CTETRA     12285       1    3711    2112    2103    2510
CTETRA     12286       1    2578    2582     338     674
CTETRA     12287       1    2684     619     618     732
CTETRA     12288       1    1269    1274    1273     672
CTETRA     12289       1    3962    3963    2883     977
CTETRA     12290       1    1291    2580    2581     339
CTETRA     12291       1    2436    2447    2448     341
CTETRA     12292       1    2621    2642     211    1092
CTETRA     12293       1    1368    1372    1371     928
CTETRA     12294       1     245     242     298     246
CTETRA     12295       1     783     701     251     203
CTETRA     12296       1    3456     783     493     530
CTETRA     12297       1     499     699     783     203
CTETRA     12298       1    1278    1279     339     341
CTETRA     12299       1    3751    1272    1275    2570
CTETRA     12300       1     241     251     430     244
CTETRA     12301       1    2568    2574    2569     720
CTETRA     12302       1    3777    1360    3778    2619
CTETRA     12303       1    2620    2631    2630     815
CTETRA     12304       1    2829    1003    2833    1005
CTETRA     12305       1    2619    2631    2620     781
CTETRA     12306       1    3811    2600    2595    1141
CTETRA     12307       1    2595    2655    2659     477
CTETRA     12308       1    3163    2298     281      87
CTETRA     12309       1    3163     281    1574      87
CTETRA     12310       1     684     683     687     288
CTETRA     12311       1    3162    2291    3163      87
CTETRA     12312       1    3256      78      46     104
CTETRA     12313       1    2704    2712    2709    1068
CTETRA     12314       1    2291     283      87      64
CTETRA     12315       1    1392    1396    1395    1034
CTETRA     12316       1     492      57     988      59
CTETRA     12317       1    2110    2112    2111     690
CTETRA     12318       1    3162    2291      87      64
CTETRA     12319       1    3710    2111    2112    2513
CTETRA     12320       1     938     937     160     162
CTETRA     12321       1    2201    2205    2204     650
CTETRA     12322       1     575     904     598     157
CTETRA     12323       1     332     467    1211     164
CTETRA     12324       1     938     940     756     162
CTETRA     12325       1    3724    1011    1169    1101
CTETRA     12326       1    2787    2792    2793    1194
CTETRA     12327       1    2202    2736    2737     657
CTETRA     12328       1     332     335     601     165
CTETRA     12329       1    2531     691     689     693
CTETRA     12330       1    3829    2196    3830    2738
CTETRA     12331       1    2195    2199    2198     657
CTETRA     12332       1    2230    2753     728     632
CTETRA     12333       1    3955    3956    2753     632
CTETRA     12334       1    2230    2233    2753     632
CTETRA     12335       1    3919    3920    2233    2753
CTETRA     12336       1    2761    2860    2877     623
CTETRA     12337       1    3901    3902    1393    2785
CTETRA     12338       1    1011    1101    1012     600
CTETRA     12339       1    2955     332    2956     335
CTETRA     12340       1    1336    1026    2863     828
CTETRA     12341       1    1339     829    2632     830
CTETRA     12342       1    3899    3900    1387    2864
CTETRA     12343       1    2954    1169    2955     601
CTETRA     12344       1    1391    2715    2714     624
CTETRA     12345       1     755     574     669     660
CTETRA     12346       1    2705    1103    2709    1214
CTETRA     12347       1    1784     575     755     759
CTETRA     12348       1    1388    2714    2618     624
CTETRA     12349       1    1386    1387    1390     828
CTETRA     12350       1    1800     669    1815     596
CTETRA     12351       1    1387    2863    2864     828
CTETRA     12352       1    3900    2762    1390    2864
CTETRA     12353       1     467    1153    1152    1209
CTETRA     12354       1    1786    1800     755     669
CTETRA     12355       1    3558    2317     992     990
CTETRA     12356       1    1786     755     574     669
CTETRA     12357       1    1267     204     772     571
CTETRA     12358       1    3260    2055    2056     593
CTETRA     12359       1    3912    3913    1426    2777
CTETRA     12360       1    2966    1080    1266     207
CTETRA     12361       1    1415    1416    1419    1205
CTETRA     12362       1    3292    1615    2926    1080
CTETRA     12363       1    2051    2052     595     468
CTETRA     12364       1    1424    1425    1428    1043
CTETRA     12365       1    3748    2554    1306    2565
CTETRA     12366       1    1428    1429    1432     634
CTETRA     12367       1    3003    3363    3004     876
CTETRA     12368       1    3912    1426    1423    2777
CTETRA     12369       1    1810     210     857     787
CTETRA     12370       1    2830    2832     928    1005
CTETRA     12371       1    1673     710     172     590
CTETRA     12372       1    1328     473    2458     258
CTETRA     12373       1    3255    3256      46     104
CTETRA     12374       1    1364    2832    2831    1005
CTETRA     12375       1    3258    3259    1582     304
CTETRA     12376       1    2838    2840    2842    1050
CTETRA     12377       1     791     988      57     490
CTETRA     12378       1    3805    3806    2609     791
CTETRA     12379       1    2517     472     474     258
CTETRA     12380       1    2362     474    2371     535
CTETRA     12381       1    1588      46      76     280
CTETRA     12382       1    2314      55       2      63
CTETRA     12383       1    2852    2859    2858    1158
CTETRA     12384       1    2508     474    2514     535
CTETRA     12385       1    2851    2858    2857    1157
CTETRA     12386       1    3004     385     876     370
CTETRA     12387       1    2623    2645    2644     256
CTETRA     12388       1    2135    1111    2138    1161
CTETRA     12389       1    3028    3367    3029    1095
CTETRA     12390       1    1472     214    1095     231
CTETRA     12391       1    2733    2736    2738     657
CTETRA     12392       1    3142     231     917     226
CTETRA     12393       1    2192    1049     864    1030
CTETRA     12394       1    2729    2736    2733     657
CTETRA     12395       1    2705    2713    1066    1214
CTETRA     12396       1    3027    3367    3028    1095
CTETRA     12397       1     110      19    1016     133
CTETRA     12398       1    3148    1016    1570     448
CTETRA     12399       1    3256    2051    2052     595
CTETRA     12400       1    2963    1264    1263    1127
CTETRA     12401       1    2963    2964    1264    1213
CTETRA     12402       1    3290    2964    2963    1619
CTETRA     12403       1    3148    3149    1567    1016
CTETRA     12404       1    3149    1016    1491     183
CTETRA     12405       1    1492     453     451    1088
CTETRA     12406       1    3728    2550    3729    1151
CTETRA     12407       1    2956    3727    2957     331
CTETRA     12408       1     933     643     648     158
CTETRA     12409       1    2958    3729    3730      38
CTETRA     12410       1    3281    2911    3282    1601
CTETRA     12411       1    1306    1307    2565     187
CTETRA     12412       1    1258     205    1115     206
CTETRA     12413       1    2904     582     577     129
CTETRA     12414       1    1758    1059     581      50
CTETRA     12415       1    3068     995    1521    1115
CTETRA     12416       1    3283    2908    3284    1597
CTETRA     12417       1    1837    1520    1521     206
CTETRA     12418       1    2936    1258     205    1039
CTETRA     12419       1    1008     997      91    1015
CTETRA     12420       1    1745    1760     775    1014
CTETRA     12421       1    3301    2941    2940    1602
CTETRA     12422       1    1746    1493    1505    1014
CTETRA     12423       1    1603    1606    1605      23
CTETRA     12424       1    2758    2794     651     864
CTETRA     12425       1     900     112     134     901
CTETRA     12426       1    2967    3360    3359     900
CTETRA     12427       1    1664     747    1667     749
CTETRA     12428       1    3360    1679    1685     900
CTETRA     12429       1    2906    1595    2907    1216
CTETRA     12430       1    3933    2872    2191     864
CTETRA     12431       1    2968    3359    2969     902
CTETRA     12432       1    3933    2191    2194     864
CTETRA     12433       1    2758     864    1041    1030
CTETRA     12434       1    2190    2735    2734    1120
CTETRA     12435       1    3260    3261    1159     310
CTETRA     12436       1    3008    1490    3968     182
CTETRA     12437       1    3019     567    1165     569
CTETRA     12438       1    3253      67     145     146
CTETRA     12439       1    2968     900    3359     902
CTETRA     12440       1    1477    1480     566     569
CTETRA     12441       1    2992    3345    3114    1046
CTETRA     12442       1    2993    3114    1098    1046
CTETRA     12443       1    1091     883     957     154
CTETRA     12444       1    1063     871     872    1046
CTETRA     12445       1    1563      70    1062     226
CTETRA     12446       1     960     317    1048     225
CTETRA     12447       1    2990    3346    2991     851
CTETRA     12448       1    2991    2992    1449    1047
CTETRA     12449       1     870     215     919     225
CTETRA     12450       1    3019    3693     524     570
CTETRA     12451       1    2991    3346    3345    1063
CTETRA     12452       1     695     696     984    1072
CTETRA     12453       1    3025    3365    3026    1106
CTETRA     12454       1    3021    1181     874     569
CTETRA     12455       1    1165     559    1072     875
CTETRA     12456       1     826     673     606     528
CTETRA     12457       1    3111    3454    3326     529
CTETRA     12458       1     854    1207     494     243
CTETRA     12459       1    2289     493     854     494
CTETRA     12460       1    2747      36    2750      37
CTETRA     12461       1    3118    3119    1384      25
CTETRA     12462       1    3979    3495    3117    3496
CTETRA     12463       1    1143     734     733     801
CTETRA     12464       1    2686    2702    2692     734
CTETRA     12465       1    3497    2315    2304       6
CTETRA     12466       1     734     636     801     923
CTETRA     12467       1    3958     722    1130    1203
CTETRA     12468       1     806    1050     840     532
CTETRA     12469       1    3497    3814    3813     409
CTETRA     12470       1    3979    3496    3117    3814
CTETRA     12471       1    2811     834     912     923
CTETRA     12472       1    3408     671    3595     424
CTETRA     12473       1    2692     734    2702     636
CTETRA     12474       1    3252    1565    1564    1025
CTETRA     12475       1    2764    1143    2772     912
CTETRA     12476       1    2772    2811     912     923
CTETRA     12477       1    3137    1478    3138     548
CTETRA     12478       1    2702     734     914     923
CTETRA     12479       1    2218    2814     167     913
CTETRA     12480       1    3810    2595    2659     477
CTETRA     12481       1    1361    1362    1365    1005
CTETRA     12482       1    2596    2656     402     403
CTETRA     12483       1    3172    1670    1666     846
CTETRA     12484       1    3813     586     409     587
CTETRA     12485       1    2599     402    2600     587
CTETRA     12486       1    1371     928    1375     405
CTETRA     12487       1    3563    3564    2338     270
CTETRA     12488       1    2905    2906     582     129
CTETRA     12489       1    3871    2177    1051    1036
CTETRA     12490       1    2745     687    2835     404
CTETRA     12491       1    3880     685     508     837
CTETRA     12492       1    3258    1582    1580      53
CTETRA     12493       1    3870    2178    2176    1051
CTETRA     12494       1     404     403     928     405
CTETRA     12495       1    2743    2744    2830     404
CTETRA     12496       1    1273    1274    1276     672
CTETRA     12497       1    1370    1371     404     928
CTETRA     12498       1    2835     404     403     928
CTETRA     12499       1    2596    2597     403     405
CTETRA     12500       1    3675    1311    1312    2422
CTETRA     12501       1     719     762     809     807
CTETRA     12502       1     760     717     810     807
CTETRA     12503       1     716     767     766     608
CTETRA     12504       1    1908    1923    1922     825
CTETRA     12505       1    3673    2485    2483      69
CTETRA     12506       1    3310    3449    1641     719
CTETRA     12507       1    3310    1640    3409     719
CTETRA     12508       1    3672    3673    1319    2485
CTETRA     12509       1    1893    1908     761    1038
CTETRA     12510       1    1304    1312    1305      65
CTETRA     12511       1    3674    1312    1304    2484
CTETRA     12512       1    3674    1304    2483    2484
CTETRA     12513       1     810      33     762     807
CTETRA     12514       1    1306    1309    1307     187
CTETRA     12515       1    1327    2527    2522     845
CTETRA     12516       1    1301    1324    2540     842
CTETRA     12517       1    2523    2541    2540     692
CTETRA     12518       1    2391    2399    2395     848
CTETRA     12519       1    1301    1323    1324     842
CTETRA     12520       1    1324    1325    1326     848
CTETRA     12521       1    1317    1318    1320     105
CTETRA     12522       1    1849    1864     717     811
CTETRA     12523       1     719     811     856     808
CTETRA     12524       1    2450    2457    2459     258
CTETRA     12525       1    1639    1640     768     762
CTETRA     12526       1    3741    1329    3742    2506
CTETRA     12527       1    2451    2452    2479     105
CTETRA     12528       1    1331    2458    2457     258
CTETRA     12529       1    1937    1938    1546     606
CTETRA     12530       1    3752    2570    1278    2581
CTETRA     12531       1    2754    2756    2755     622
CTETRA     12532       1    1358    1362    1361     782
CTETRA     12533       1    2314      64      55      63
CTETRA     12534       1    3503     714    3504      63
CTETRA     12535       1    3318    3422    3421     702
CTETRA     12536       1     477    1195     687     288
CTETRA     12537       1    2829    2830    2834     928
CTETRA     12538       1     276     278      57     279
CTETRA     12539       1     685     837     686     490
CTETRA     12540       1     276     685     277     279
CTETRA     12541       1    2829    2833    2831    1005
CTETRA     12542       1    3507    2299    2298     283
CTETRA     12543       1    1362    1363    1366    1004
CTETRA     12544       1    3317    1633    3318     703
CTETRA     12545       1    3502     380    3808     478
CTETRA     12546       1    3909    2778    1417    2779
CTETRA     12547       1    2778    2779    2798     415
CTETRA     12548       1     596     336    1198    1024
CTETRA     12549       1    3317    3420    3419     228
CTETRA     12550       1     937     935     598     758
CTETRA     12551       1    3104    1207    1550     502
CTETRA     12552       1    2956     332     331     335
CTETRA     12553       1    1829    1830    1518    1198
CTETRA     12554       1     465     161     164    1209
CTETRA     12555       1     465     164    1152    1209
CTETRA     12556       1     332    1011     467     161
CTETRA     12557       1    3645     160     933     465
CTETRA     12558       1    3643     938     160     939
CTETRA     12559       1    1801    1816    1815     669
CTETRA     12560       1    3198    1829    1830    1518
CTETRA     12561       1    2896    3643     938     160
CTETRA     12562       1    3490    1640     609     768
CTETRA     12563       1    1924     610    1037    1178
CTETRA     12564       1    1924     825    1037     610
CTETRA     12565       1    3122    1662    1661      96
CTETRA     12566       1    1112     175    1042     818
CTETRA     12567       1     717     811     807     808
CTETRA     12568       1     761      34     825     611
CTETRA     12569       1    1894     744    1038     810
CTETRA     12570       1    1894    1150    1895     744
CTETRA     12571       1      82      33      83     807
CTETRA     12572       1    1543     500    1547     528
CTETRA     12573       1    1061    1105     878     193
CTETRA     12574       1    3602     695     907     696
CTETRA     12575       1    1817    1832    1831     668
CTETRA     12576       1    1815     596     669    1198
CTETRA     12577       1    1256     664     601     336
CTETRA     12578       1    3074    1518    1511    1198
CTETRA     12579       1     744      34      33      35
CTETRA     12580       1    2948    2949    1086    1087
CTETRA     12581       1    3074    1511     665    1198
CTETRA     12582       1    3459     429    3960     430
CTETRA     12583       1     723    1143     733    1121
CTETRA     12584       1    3439     629    3764     562
CTETRA     12585       1    3763    3764     723     562
CTETRA     12586       1    1045    1054    1060     785
CTETRA     12587       1     241     430    1058     244
CTETRA     12588       1    3074    1256    1253     336
CTETRA     12589       1     201     428     563     203
CTETRA     12590       1    1045    1060    1054    1166
CTETRA     12591       1    3438    3439    2261     631
CTETRA     12592       1    3569    2337     927     368
CTETRA     12593       1    1241     822     197     736
CTETRA     12594       1     927     413     368     372
CTETRA     12595       1    3866     412    3572     372
CTETRA     12596       1    3868    1720    3571     368
CTETRA     12597       1    3571    3572     412     372
CTETRA     12598       1    3417    1635    3418     740
CTETRA     12599       1    1735    1007     269     967
CTETRA     12600       1    2319     253     966     969
CTETRA     12601       1    3394    1731     906    1148
CTETRA     12602       1    3392    3524    3523     519
CTETRA     12603       1    3523     519    2293     520
CTETRA     12604       1    1731    1148    1733     269
CTETRA     12605       1    1112     818     376     703
CTETRA     12606       1    3393    1731    3394    1148
CTETRA     12607       1    3392    1733    3393    1148
CTETRA     12608       1    1643     767     190     608
CTETRA     12609       1    1816    1817    1831     668
CTETRA     12610       1    3003    3408    3363     876
CTETRA     12611       1    3763     562     723     733
CTETRA     12612       1     250     994     499     249
CTETRA     12613       1    3573    3574    1855     897
CTETRA     12614       1     951    1121     725     924
CTETRA     12615       1    3763    2685    1163     733
CTETRA     12616       1    3266    1585    1119    1177
CTETRA     12617       1      78     104     304     293
CTETRA     12618       1     558     780    1044     910
CTETRA     12619       1     876     370     385     192
CTETRA     12620       1    3266    1180    3267    1177
CTETRA     12621       1     170     833     303     751
CTETRA     12622       1    3242      15    3243     450
CTETRA     12623       1    3246    1560    1561     917
CTETRA     12624       1     582     129    1216    1059
CTETRA     12625       1     450     449     240     118
CTETRA     12626       1    3243      42    1956      43
CTETRA     12627       1    2979    2980    1457     547
CTETRA     12628       1    3142    3143    1560     231
CTETRA     12629       1    3029    1095    1705     978
CTETRA     12630       1    3146    1568     510     450
CTETRA     12631       1    3164    1588    1574     280
CTETRA     12632       1    3248    1951    3249     521
CTETRA     12633       1    3143    1471    1473     231
CTETRA     12634       1    3247    1952    3248     523
CTETRA     12635       1    1570     452     448     450
CTETRA     12636       1    1954    1955    1969     469
CTETRA     12637       1    3240    1567    1572     111
CTETRA     12638       1    2987    2988    1446     852
CTETRA     12639       1    3114    3115     875    1046
CTETRA     12640       1     679     678     464     468
CTETRA     12641       1    3002    3003    3408    3995
CTETRA     12642       1    1975    1990    1989     140
CTETRA     12643       1    3146    1568    1569     510
CTETRA     12644       1    1676     747     832     709
CTETRA     12645       1    3123    1458    1456     884
CTETRA     12646       1     450     240      13     377
CTETRA     12647       1    3304    3305    2947    1590
CTETRA     12648       1    3733    2489    3724    1010
CTETRA     12649       1    1671    1673    1672     709
CTETRA     12650       1    3322    3430    3429    1189
CTETRA     12651       1    3342    3469    3468     926
CTETRA     12652       1     894    1125     516     369
CTETRA     12653       1     949     342     655     652
CTETRA     12654       1    3725    3726     332    1011
CTETRA     12655       1    3332    3487    3486     885
CTETRA     12656       1    1755    1770     904     576
CTETRA     12657       1    3499     959     290       4
CTETRA     12658       1    2401     465    1154    1209
CTETRA     12659       1    3313    3413    3412    1149
CTETRA     12660       1     553     784     740     817
CTETRA     12661       1     938     160     939     161
CTETRA     12662       1    1296     287    1010    1100
CTETRA     12663       1    2401    1154    1196    1209
CTETRA     12664       1    1692     236      99     116
CTETRA     12665       1    1671    1672    1674     709
CTETRA     12666       1     238     100     236      97
CTETRA     12667       1    3130    1451    3131    1048
CTETRA     12668       1    3134    1462    1460     379
CTETRA     12669       1    3132    3133    1650     387
CTETRA     12670       1    1595    1597    1216     129
CTETRA     12671       1    3134    3981    1657     379
CTETRA     12672       1    1479     548    1061     396
CTETRA     12673       1    3134    1460    3981     379
CTETRA     12674       1     507     237     118     235
CTETRA     12675       1    1575    1582     304       5
CTETRA     12676       1    1664    1665    1676     749
CTETRA     12677       1     285     284     972     286
CTETRA     12678       1    1692     453     371     236
CTETRA     12679       1    1580      53    1582       1
CTETRA     12680       1    1132     507     374     235
CTETRA     12681       1    1693     238     100     236
CTETRA     12682       1    1897     816     553     817
CTETRA     12683       1    1663    1667    1664     747
CTETRA     12684       1    3170    2330     927     711
CTETRA     12685       1    3039    3373    3040    1170
CTETRA     12686       1    2972    1691    3356     100
CTETRA     12687       1    3035    3371    3036     647
CTETRA     12688       1    1058     430     246     244
CTETRA     12689       1    1597     127    1600      92
CTETRA     12690       1    3369    1703    1131     981
CTETRA     12691       1    1200     790     996    1206
CTETRA     12692       1    1601      91      92     776
CTETRA     12693       1    3491     367     849     706
CTETRA     12694       1    2926    1265    1266     572
CTETRA     12695       1     849     323     328     706
CTETRA     12696       1     505     328     908     706
CTETRA     12697       1    3315    3316    3418    1635
CTETRA     12698       1    2977    1697     546     233
CTETRA     12699       1    3589    1751    3590     862
CTETRA     12700       1    2886    2887    1238     353
CTETRA     12701       1    3397    3491    4000     849
CTETRA     12702       1    3397    4000    3531     849
CTETRA     12703       1     858     822     899     860
CTETRA     12704       1     354     617     353     729
CTETRA     12705       1    2887    2888    1238     355
CTETRA     12706       1    1736    1737    1751     512
CTETRA     12707       1    3110    1594    1593     663
CTETRA     12708       1    2948    2949    1252    1086
CTETRA     12709       1    3109    1594    3110     663
CTETRA     12710       1    2955    1253    1256     335
CTETRA     12711       1    1756    1771    1770     576
CTETRA     12712       1    2952    2953    1245     664
CTETRA     12713       1    2953    1256    1245     664
CTETRA     12714       1    2900    2901    1225     583
CTETRA     12715       1     641     204     571     788
CTETRA     12716       1    3057    1223    3058     775
CTETRA     12717       1    3115     875    1001     694
CTETRA     12718       1    1777    1792    1791      24
CTETRA     12719       1    3325    3434    3433     491
CTETRA     12720       1    2995    1454    1098    1017
CTETRA     12721       1    2927    2928    1265     641
CTETRA     12722       1    2994    3603     907     694
CTETRA     12723       1    1173    1192     892    1204
CTETRA     12724       1    2995    3602    2996     907
CTETRA     12725       1    3073    3074    1511     665
CTETRA     12726       1    3561     408     276     277
CTETRA     12727       1    1590    1592    1591    1087
CTETRA     12728       1    3337    3476    3338     376
CTETRA     12729       1    3973    1594    3109     666
CTETRA     12730       1    3060    1232    1234      61
CTETRA     12731       1      39     333    1126      40
CTETRA     12732       1     290     272    1168     288
CTETRA     12733       1    2361    2362    2459     472
CTETRA     12734       1    1830    1511    1198     668
CTETRA     12735       1      76      55      87      56
CTETRA     12736       1     990     278     710      59
CTETRA     12737       1     408     276     278     509
CTETRA     12738       1      78      77      75      56
CTETRA     12739       1    2961    2962     820     345
CTETRA     12740       1     956     874     919     569
CTETRA     12741       1    3208    1838    1839    1522
CTETRA     12742       1    3021    3696    3022    1181
CTETRA     12743       1    3208    1839    3209    1519
CTETRA     12744       1     630     538     628     540
CTETRA     12745       1    1165    1072    1001     875
CTETRA     12746       1    1281    1290    2350     340
CTETRA     12747       1    3463    3956    3955     633
CTETRA     12748       1    2352     936    2353     340
CTETRA     12749       1    3021    1165    1181     569
CTETRA     12750       1    1849    1864    1863     717
CTETRA     12751       1    3217    1848    1847    1531
CTETRA     12752       1    3087    2254    2256     811
CTETRA     12753       1     719     807     811     808
CTETRA     12754       1    1848    1528    1849     811
CTETRA     12755       1    3019    1165    3020     569
CTETRA     12756       1    1845    1860    1859    1166
CTETRA     12757       1    1098    1017     870     875
CTETRA     12758       1    3449     719    2255     856
CTETRA     12759       1    1469     956    1480     569
CTETRA     12760       1    1601    1603     997      22
CTETRA     12761       1    1744    1497    1745     775
CTETRA     12762       1    1853    1536      93     177
CTETRA     12763       1    1616    1080    1076    1077
CTETRA     12764       1    1760    1775    1774     774
CTETRA     12765       1    3292    3966    2966    1080
CTETRA     12766       1    2965    1262    1213     207
CTETRA     12767       1    3460    3461    2287    1145
CTETRA     12768       1    3983    1588     280    1184
CTETRA     12769       1    1904     298     245     242
CTETRA     12770       1    3105    2286    1058    1207
CTETRA     12771       1     888     889     561     920
CTETRA     12772       1    3323    3430    1623     905
CTETRA     12773       1    2300     443    1179    1184
CTETRA     12774       1    2264    2268     973    1191
CTETRA     12775       1     443    1184     440     437
CTETRA     12776       1    3983     280    2301    1184
CTETRA     12777       1    2300    2301     443    1184
CTETRA     12778       1    3385    3512    3511     443
CTETRA     12779       1    1008      91    1009     775
CTETRA     12780       1    3101    2279    3102     606
CTETRA     12781       1    3233    1937    1546    1547
CTETRA     12782       1    1159     310     504       7
CTETRA     12783       1    1724     497    1726     439
CTETRA     12784       1    3037    3372    3038    1132
CTETRA     12785       1    3283    1599    2909      92
CTETRA     12786       1    3146    1484     452     450
CTETRA     12787       1    3573    3987    3224    1539
CTETRA     12788       1    3971    1539    1540     895
CTETRA     12789       1    3145     308    1483     510
CTETRA     12790       1    1483     647     510     309
CTETRA     12791       1    2013    2029    2028     735
CTETRA     12792       1    2014    2015    2030     735
CTETRA     12793       1     716     766     765     771
CTETRA     12794       1    1969    1984    1983    1109
CTETRA     12795       1    3308    3446    1646     767
CTETRA     12796       1    1646     841     698     767
CTETRA     12797       1    1978    1979    1993     143
CTETRA     12798       1    1876     716    1877     715
CTETRA     12799       1    1906    1921     498     826
CTETRA     12800       1    2595    2596    2656     402
CTETRA     12801       1    2596    2600    2599     402
CTETRA     12802       1    3875    1201    2750      36
CTETRA     12803       1    1825     210     787     572
CTETRA     12804       1    3125    1654    1652     314
CTETRA     12805       1    3875     843    1201      36
CTETRA     12806       1    3161    2312    2313       1
CTETRA     12807       1    1981    1996    1995     102
CTETRA     12808       1    1994    1995    2009     102
CTETRA     12809       1     843    1201      36     718
CTETRA     12810       1    1379      36    2747      37
CTETRA     12811       1    2656    1195     403     220
CTETRA     12812       1    3126    1445    3127    1654
CTETRA     12813       1    1013    1090      22      24
CTETRA     12814       1    3392     519    3523     520
CTETRA     12815       1    3269     454     455     313
CTETRA     12816       1     997    1013      21    1015
CTETRA     12817       1    3706    2127    3707    2516
CTETRA     12818       1    1008      22    1013    1090
CTETRA     12819       1    1008    1015     775    1014
CTETRA     12820       1    3708    2114    2511    2516
CTETRA     12821       1    2068    2069    2529     263
CTETRA     12822       1    2510    2521    2520     475
CTETRA     12823       1    1747    1762    1761      61
CTETRA     12824       1    1822    1837    1115     206
CTETRA     12825       1    2511    2513    2512     534
CTETRA     12826       1    2368    2389    2390     693
CTETRA     12827       1    1008    1013    1015    1014
CTETRA     12828       1    3616    2119    2123    2467
CTETRA     12829       1    1747    1505    1504      62
CTETRA     12830       1    3064    3970    1265     572
CTETRA     12831       1    1039     824      23    1174
CTETRA     12832       1    1145    1058     430     246
CTETRA     12833       1    2928    2929    1267     204
CTETRA     12834       1    2769    1130    1142    1143
CTETRA     12835       1    3959    2769    2764    1130
CTETRA     12836       1    2215    2219    2218     167
CTETRA     12837       1    2188    2192    2191     864
CTETRA     12838       1    2131    2136    2132    1111
CTETRA     12839       1    2286     241    2287    1058
CTETRA     12840       1    1917     125    1932     301
CTETRA     12841       1    1200    1175     790     776
CTETRA     12842       1    2849     955     952    1092
CTETRA     12843       1    2287    1145    1058     430
CTETRA     12844       1    1917     298    1918     299
CTETRA     12845       1    1193     418     417     416
CTETRA     12846       1    2477     720     680     721
CTETRA     12847       1    2477     680     681     721
CTETRA     12848       1    3938    3939    2131    2868
CTETRA     12849       1    2567    2575    2568     721
CTETRA     12850       1    3939    2847    2136    2868
CTETRA     12851       1    2421    2427    2426     187
CTETRA     12852       1    2846    2856    2847    1111
CTETRA     12853       1    2427    2443    2446     194
CTETRA     12854       1    3840    2146    3841    2652
CTETRA     12855       1    2818     212    2850     211
CTETRA     12856       1    3253     274    1565     145
CTETRA     12857       1    3982    1486     198     111
CTETRA     12858       1    2639    2649    2640     869
CTETRA     12859       1    3008    1490     182     131
CTETRA     12860       1    1724     181     180     439
CTETRA     12861       1    2165    2166    2169     839
CTETRA     12862       1    1486    1488     198     188
CTETRA     12863       1    2162    2166    2165     839
CTETRA     12864       1    3935    3936    2185    2871
CTETRA     12865       1    2185    2871    2870    1030
CTETRA     12866       1    3135    1571    3982     198
CTETRA     12867       1    1490     182     111     183
CTETRA     12868       1     414     900     134     901
CTETRA     12869       1    1041     864    1049    1030
CTETRA     12870       1    2870    1103    1029    1030
CTETRA     12871       1    3937    2179    2182    1029
CTETRA     12872       1     149     379     115     388
CTETRA     12873       1    1490     111     182     131
CTETRA     12874       1    3989      19     110      67
CTETRA     12875       1    2877     623     929    1214
CTETRA     12876       1    2713     929     623    1214
CTETRA     12877       1    2617    2716    2713     623
CTETRA     12878       1    2616     953     929    1214
CTETRA     12879       1    3829    2199    2196    2738
CTETRA     12880       1    3415    1636    3416     886
CTETRA     12881       1    3417    2241    2242    1183
CTETRA     12882       1    3314    3416    3415    1636
CTETRA     12883       1    3415    3416    2242     886
CTETRA     12884       1    3089    2242    2241    1135
CTETRA     12885       1    3314    3415    3414    1637
CTETRA     12886       1    1850    1525    1851      90
CTETRA     12887       1    1065    1032     442    1034
CTETRA     12888       1    2860    2864    2863     828
CTETRA     12889       1    1335    1026    1336     828
CTETRA     12890       1    1334    1335    1386     829
CTETRA     12891       1    2861     930     929    1026
CTETRA     12892       1    1852    1867     178     177
CTETRA     12893       1    2624     930    2627     929
CTETRA     12894       1    2861     930    2878     929
CTETRA     12895       1    3281    2913    2912    1601
CTETRA     12896       1    3419    1635    1634     740
CTETRA     12897       1     730     229     178     177
CTETRA     12898       1    3127    1647     314     317
CTETRA     12899       1    3122      98    1662      96
CTETRA     12900       1     148     316    1064     155
CTETRA     12901       1    1659      94     148     115
CTETRA     12902       1     148    1064     149     155
CTETRA     12903       1    1447     119     314      52
CTETRA     12904       1    1170    1132     234     235
CTETRA     12905       1    3085    2258    2259     771
CTETRA     12906       1    3448    3449    2253     766
CTETRA     12907       1    3409    2255    3998     719
CTETRA     12908       1    3454    3455    2278     495
CTETRA     12909       1    1642    1646     529     190
CTETRA     12910       1    3453    1642     529     190
CTETRA     12911       1    1652    1091     883     957
CTETRA     12912       1    3102    3103    1547     528
CTETRA     12913       1    3102    2279    2285     528
CTETRA     12914       1    1377     587    1380      37
CTETRA     12915       1    3454    2278    2284     495
CTETRA     12916       1    1582     304       5       1
CTETRA     12917       1    3873    3874    2747      26
CTETRA     12918       1     498     826     500     501
CTETRA     12919       1    3111    3975    3326    3454
CTETRA     12920       1    3326    3454    3453     529
CTETRA     12921       1    1377     404     405      37
CTETRA     12922       1    1376     404    1377      37
CTETRA     12923       1    1820    1200    1089     995
CTETRA     12924       1    3112    1646     698     529
CTETRA     12925       1    1605    1606    1608      23
CTETRA     12926       1    3160    2304    2315       5
CTETRA     12927       1    3563     277    3877     273
CTETRA     12928       1    3770    2599    2598     587
CTETRA     12929       1    3813    3814    2598     587
CTETRA     12930       1     997      21    1013      22
CTETRA     12931       1    2915      86    1129      61
CTETRA     12932       1    3861    3539    1733    1007
CTETRA     12933       1    1129      86     389      61
CTETRA     12934       1    3860    1735    1734     966
CTETRA     12935       1     906     268     329     551
CTETRA     12936       1    3540    2319    2320    1006
CTETRA     12937       1    3179    1671    1677     169
CTETRA     12938       1    3281    2913    1601    1603
CTETRA     12939       1    3390    1139    1734     544
CTETRA     12940       1    3548    2328    2329     168
CTETRA     12941       1     941     205    1039     824
CTETRA     12942       1    3511    3512    2301     443
CTETRA     12943       1    1753     950    1768     656
CTETRA     12944       1    3984     172    1671     169
CTETRA     12945       1     168     170     439     171
CTETRA     12946       1     391     260     644     652
CTETRA     12947       1     333     342     964    1128
CTETRA     12948       1    3549    3550    2326     497
CTETRA     12949       1    3549    2326    2328     168
CTETRA     12950       1    3855    3856    1726     497
CTETRA     12951       1    3856    3548    3857    1728
CTETRA     12952       1     197     822    1035     860
CTETRA     12953       1    3267    3268    1586    1138
CTETRA     12954       1    3269      45     312     313
CTETRA     12955       1     655     354     656     347
CTETRA     12956       1    2888    2889     355     348
CTETRA     12957       1    2891     361     391     262
CTETRA     12958       1    3495    3496    2304     365
CTETRA     12959       1    3167    3168    1663     844
CTETRA     12960       1    3563    3876    3564     270
CTETRA     12961       1    3572    2333    2331     412
CTETRA     12962       1     959    1141     290    1168
CTETRA     12963       1    3401     346    2889     348
CTETRA     12964       1    2911    2912    1217     997
CTETRA     12965       1    2891     391    1229     654
CTETRA     12966       1    3566    3567    2330      30
CTETRA     12967       1    3271    1617    1621     348
CTETRA     12968       1    3496    3497    2304       6
CTETRA     12969       1    1377    1381     587     405
CTETRA     12970       1    3636    3637    2089    2344
CTETRA     12971       1    1751     354     862     729
CTETRA     12972       1    3271    1621    2888     348
CTETRA     12973       1     106     382     387     383
CTETRA     12974       1    3637    2078    2344    2346
CTETRA     12975       1     109     275     877     383
CTETRA     12976       1     458    1096     459     543
CTETRA     12977       1     186     911     188     147
CTETRA     12978       1    2079    2086    2088     543
CTETRA     12979       1    3280    2914    1603    1605
CTETRA     12980       1    3010     186     911     188
CTETRA     12981       1    2535     461     459     543
CTETRA     12982       1    2086    2536    2087     543
CTETRA     12983       1    3636    2344    2089    2405
CTETRA     12984       1    3011    3381    3012     911
CTETRA     12985       1    3010    3381    3011     911
CTETRA     12986       1    3872     283     282     989
CTETRA     12987       1     508     991      57     509
CTETRA     12988       1    3637    2078    2089    2344
CTETRA     12989       1    3270    3401    3991    2889
CTETRA     12990       1    3558    3559     990     991
CTETRA     12991       1    3559     991     508     509
CTETRA     12992       1    1716     992     356     613
CTETRA     12993       1    2114    2516    2127     536
CTETRA     12994       1    2371    2372    2375     689
CTETRA     12995       1    2363    2371    2374     535
CTETRA     12996       1    2101    2110    2116     690
CTETRA     12997       1     992     989      59     613
CTETRA     12998       1    2317     971    2324     590
CTETRA     12999       1    1301    1323     842     983
CTETRA     13000       1    1324    1325     848     842
CTETRA     13001       1    2384    2388    2385     266
CTETRA     13002       1    3166    2317    3167     971
CTETRA     13003       1    3557    3558    2317     992
CTETRA     13004       1    2386    2396    2387    1162
CTETRA     13005       1     990     991      57     988
CTETRA     13006       1    2523     692     691     693
CTETRA     13007       1    2413    1097     459    1096
CTETRA     13008       1    2383    2390    2384     265
CTETRA     13009       1    2433     446    2437     985
CTETRA     13010       1    3697    2095     426     319
CTETRA     13011       1    3561     508    3880     685
CTETRA     13012       1    2418    2430    2429     420
CTETRA     13013       1    3878     685    2840     683
CTETRA     13014       1    2577    2578    2590     674
CTETRA     13015       1    2092    2096    2097     421
CTETRA     13016       1    2431    2442    2441     433
CTETRA     13017       1    2432     447    2439     444
CTETRA     13018       1    1580      55      53       1
CTETRA     13019       1    3878     277     685     683
CTETRA     13020       1    2434    2435    2449     985
CTETRA     13021       1    1648     148    1660    1091
CTETRA     13022       1    3561     276     508     685
CTETRA     13023       1    3004    3005    1462     370
CTETRA     13024       1    3666    1331    1328    2458
CTETRA     13025       1    2911    1601    2912     997
CTETRA     13026       1     408     276     277     278
CTETRA     13027       1    2451    2459    2456    1023
CTETRA     13028       1     894     905     369    1147
CTETRA     13029       1     992     590     356     613
CTETRA     13030       1    3670    3671    1318    2481
CTETRA     13031       1    3478    3479    2270     557
CTETRA     13032       1    3547    3548    2329     438
CTETRA     13033       1      45     434     441     437
CTETRA     13034       1     281     283     591     588
CTETRA     13035       1    1884    1885    1900     891
CTETRA     13036       1    2299     591     281     283
CTETRA     13037       1    2297     280    2299     614
CTETRA     13038       1    3740    1321    1333    2527
CTETRA     13039       1    2371    2373    2372     474
CTETRA     13040       1    2361     473     474     258
CTETRA     13041       1     292     440     174      77
CTETRA     13042       1     481     589     356     173
CTETRA     13043       1    1305    1309    1306      65
CTETRA     13044       1    3006    1460     370     151
CTETRA     13045       1    2374     690    2381     534
CTETRA     13046       1    2729     651     307     657
CTETRA     13047       1    2102    2112     690     475
CTETRA     13048       1    3739    1321    3740    2527
CTETRA     13049       1    3132    1442    3133     387
CTETRA     13050       1    2527     845     473    1102
CTETRA     13051       1    1321    1332    1333     473
CTETRA     13052       1    1329    2506    2517     258
CTETRA     13053       1    1328    1329    1333     258
CTETRA     13054       1    2760    1032     623    1066
CTETRA     13055       1    1442     385    1461     387
CTETRA     13056       1    3362    1683    1682     370
CTETRA     13057       1     188     191     878     193
CTETRA     13058       1    3009     186     188     131
CTETRA     13059       1    2475    2480    2478     189
CTETRA     13060       1    3008    3380    3009     186
CTETRA     13061       1    2452    2478    2479     185
CTETRA     13062       1    2627     930    2634     830
CTETRA     13063       1    3010    3380    1681     186
CTETRA     13064       1    3009     186    3010     188
CTETRA     13065       1    1020    1019     401     108
CTETRA     13066       1    2503    2558    2551    1155
CTETRA     13067       1    3690    3691     406    1185
CTETRA     13068       1    3018     406    3691     570
CTETRA     13069       1    3748    1306    1307    2565
CTETRA     13070       1    1687     879     902     112
CTETRA     13071       1    3796    1415    3797    2722
CTETRA     13072       1    2968    2969    1463     114
CTETRA     13073       1    1360    2636    1363     781
CTETRA     13074       1    3751    1272    2570    2573
CTETRA     13075       1    2565    2573    2574     194
CTETRA     13076       1    3045    1491     451     183
CTETRA     13077       1      12     139     138     137
CTETRA     13078       1     568     544    1177     970
CTETRA     13079       1    3318     702    3421     703
CTETRA     13080       1    1733    1007     267     269
CTETRA     13081       1    3749    2565    1271    2573
CTETRA     13082       1    3746    1314    1315    2557
CTETRA     13083       1     170     436     303     833
CTETRA     13084       1    1702    1131    1703     378
CTETRA     13085       1    1272    1273     672     194
CTETRA     13086       1    3035    1702     647     309
CTETRA     13087       1     119     314      52     315
CTETRA     13088       1    1458     232      98     233
CTETRA     13089       1    1308     187    1310     194
CTETRA     13090       1    1701    1702     378     887
CTETRA     13091       1    1313    1315    2557      65
CTETRA     13092       1    1417    2779    2778     415
CTETRA     13093       1    3116    1181    3696     573
CTETRA     13094       1    2352     696     936     340
CTETRA     13095       1    1652     314    1091     957
CTETRA     13096       1    2981    1701    3351     119
CTETRA     13097       1     445     433     426     444
CTETRA     13098       1    3043     453    1492    1088
CTETRA     13099       1    1689     879    1690     116
CTETRA     13100       1    1690     116     879     112
CTETRA     13101       1    1679    1685     900     901
CTETRA     13102       1    3045    3376    1690     453
CTETRA     13103       1    2613    2623    2614    1161
CTETRA     13104       1    2613    2646    2623    1161
CTETRA     13105       1    3728    3729     331    1151
CTETRA     13106       1    2898     937     938     756
CTETRA     13107       1    2140    2141    2144     256
CTETRA     13108       1     904     935     598     157
CTETRA     13109       1    3839    2140    2143    2645
CTETRA     13110       1    3838    2140    2645    2646
CTETRA     13111       1    3728    1151     331     462
CTETRA     13112       1    2137    2141     256    1157
CTETRA     13113       1    1358    1359    1362     782
CTETRA     13114       1    3683    1281    1290    2350
CTETRA     13115       1    3075     336     599    1126
CTETRA     13116       1    1828    1516    1517     819
CTETRA     13117       1    1426    2768    1429     634
CTETRA     13118       1     644     964     645     334
CTETRA     13119       1    1371     404     928     405
CTETRA     13120       1    2666    1003     928    1004
CTETRA     13121       1    2823    2834    2836     218
CTETRA     13122       1    2656    2665    2662     220
CTETRA     13123       1    2600     402     586     587
CTETRA     13124       1    2772    2773    2807     923
CTETRA     13125       1     648     164    1152     934
CTETRA     13126       1     636     658    1043     621
CTETRA     13127       1    3800    1424    1427    2677
CTETRA     13128       1    1187     261     260     360
CTETRA     13129       1    2198    2202    2201     657
CTETRA     13130       1    1784     755    1799      41
CTETRA     13131       1     555    1191     746     741
CTETRA     13132       1    1939    1545    1544    1178
CTETRA     13133       1    3313    3414    3413    1149
CTETRA     13134       1    2704    2709    2705    1103
CTETRA     13135       1    1880    1150     810      83
CTETRA     13136       1    1849    1864     811     612
CTETRA     13137       1    3794    1409    3795    2723
CTETRA     13138       1    2535    2538    2537     459
CTETRA     13139       1    3796    1412    2722    2723
CTETRA     13140       1    1412    2722    2723     416
CTETRA     13141       1    1865    1880    1879      83
CTETRA     13142       1    2598    2599    2600     587
CTETRA     13143       1    3066    1522     773     946
CTETRA     13144       1    1839     773    1522     946
CTETRA     13145       1    3826    2675    2205    2737
CTETRA     13146       1    3827    2205    2202    2737
CTETRA     13147       1    1840     571    1519     773
CTETRA     13148       1    2783    1065    2786    1094
CTETRA     13149       1    2705    2713    2706    1066
CTETRA     13150       1    1825     571    1840     773
CTETRA     13151       1    2788     307    2802     958
CTETRA     13152       1    1824     210    1825     773
CTETRA     13153       1    2707    2717    2725    1065
CTETRA     13154       1    2716    1032     623     624
CTETRA     13155       1    3904    3905    1402    2783
CTETRA     13156       1    1398    1399    1402    1034
CTETRA     13157       1    2783    2791    1065    1034
CTETRA     13158       1    1399    2784    2783    1034
CTETRA     13159       1    1839    1519    1522     773
CTETRA     13160       1     929     829     623     828
CTETRA     13161       1    3943    2145    2857    2858
CTETRA     13162       1    2851    2857    2856    1157
CTETRA     13163       1    2141    2142    2145    1157
CTETRA     13164       1    2846    2873    2881    1069
CTETRA     13165       1    2615    2709    2712    1068
CTETRA     13166       1    2615    2616    2709     953
CTETRA     13167       1     959     639     290       6
CTETRA     13168       1    1103    1068    1029    1120
CTETRA     13169       1    3335    3481    3480     784
CTETRA     13170       1    2876    1103    1066    1214
CTETRA     13171       1    2533     264     962     266
CTETRA     13172       1    3339    3473    3340     881
CTETRA     13173       1    2070     537    2073    1172
CTETRA     13174       1    3339    3474    3473     799
CTETRA     13175       1    2369     845     691    1102
CTETRA     13176       1    1852    1537    1536     178
CTETRA     13177       1    2368    2369    2389     691
CTETRA     13178       1    3317    1634    1633     703
CTETRA     13179       1    3473    3474    2276     799
CTETRA     13180       1    1928     554     708     605
CTETRA     13181       1    1900     891      28     943
CTETRA     13182       1    2074    2415    1096     537
CTETRA     13183       1    3284    2907    1595    1597
CTETRA     13184       1    1200    1090    1089     776
CTETRA     13185       1    3052     935    1502     797
CTETRA     13186       1    2907    1597    2908    1216
CTETRA     13187       1    1756     916    1771      17
CTETRA     13188       1     669    1198     665     668
CTETRA     13189       1    2963    1213    1127    1075
CTETRA     13190       1    1008    1009     774     775
CTETRA     13191       1    1220    1226      49      51
CTETRA     13192       1     127    1081     128     129
CTETRA     13193       1    2992    3977    2993    3114
CTETRA     13194       1    1389    1390    1393    1099
CTETRA     13195       1    3019    3693    3694     524
CTETRA     13196       1    3695    2500    2501     573
CTETRA     13197       1    2391     845     848     691
CTETRA     13198       1    2389     691     848     692
CTETRA     13199       1    1449    1450    1047     317
CTETRA     13200       1    1649    1651    1650    1064
CTETRA     13201       1    3131    1451    1040    1048
CTETRA     13202       1     853     216     317     223
CTETRA     13203       1    1062     956    1002     215
CTETRA     13204       1      67     139     145      20
CTETRA     13205       1    2996     907    3602     695
CTETRA     13206       1    2518    2528    2527    1102
CTETRA     13207       1    2993    3114    3977    3604
CTETRA     13208       1    1329    2517    1333     258
CTETRA     13209       1    1731     906    1148     268
CTETRA     13210       1    2506     472    2517     258
CTETRA     13211       1    1671     709     184     172
CTETRA     13212       1    3884    1376    1379    2747
CTETRA     13213       1     838     184     170     169
CTETRA     13214       1     180     172     169     171
CTETRA     13215       1    1893    1038     760     810
CTETRA     13216       1     180     497     439     171
CTETRA     13217       1     168     170     438     439
CTETRA     13218       1    3366    1706    3367    1095
CTETRA     13219       1    3029    3367    1705    1095
CTETRA     13220       1    1703     981    1704    1021
CTETRA     13221       1    1663     710    1673     971
CTETRA     13222       1    2904    2905     582     129
CTETRA     13223       1     201    1163     618     202
CTETRA     13224       1    3070    1249    1247    1212
CTETRA     13225       1    1427    2677    1043     621
CTETRA     13226       1    3302    2942    1600    1171
CTETRA     13227       1    1200    1175    1089     995
CTETRA     13228       1    3069    1250    1249     996
CTETRA     13229       1    3914    1429    2768     634
CTETRA     13230       1    3914    2739    1432     634
CTETRA     13231       1    3963    2882    2883     395
CTETRA     13232       1    1432    2739    1435     400
CTETRA     13233       1    1481     452    1485     371
CTETRA     13234       1    1804    1805    1819    1200
CTETRA     13235       1    1279    1280    1289     341
CTETRA     13236       1    3682    2350    1290    2436
CTETRA     13237       1    3122    1455    1459      96
CTETRA     13238       1    3148     452    1481    1088
CTETRA     13239       1    3681    1280    1277    2436
CTETRA     13240       1    3240      19    3241    1016
CTETRA     13241       1    3241      15    3242     448
CTETRA     13242       1    3682    1290    1280    2436
CTETRA     13243       1    3771    1381    1378    2599
CTETRA     13244       1    1290    2350     340     341
CTETRA     13245       1    1568     452    1570     450
CTETRA     13246       1    3162      87      55      64
CTETRA     13247       1     991     836      57     988
CTETRA     13248       1     492      59     989      64
CTETRA     13249       1     816     794     376     795
CTETRA     13250       1    3558    3882    3559     991
CTETRA     13251       1    2435    2448     338     341
CTETRA     13252       1     589     588     613     173
CTETRA     13253       1    3681    3682    1280    2436
CTETRA     13254       1    3504     714     282     492
CTETRA     13255       1    3674    3675    1312    2484
CTETRA     13256       1    3029    1472    1095     978
CTETRA     13257       1    3125    1447     314      52
CTETRA     13258       1    1095     231     214     222
CTETRA     13259       1    2791    1032    1065    1034
CTETRA     13260       1    1444     317     853     852
CTETRA     13261       1    1445     314    1447     121
CTETRA     13262       1    2728     651    1041    1194
CTETRA     13263       1    2986    2987     853     318
CTETRA     13264       1     214     231     226     217
CTETRA     13265       1    3737    1324    3738    2540
CTETRA     13266       1    1445     853     314     121
CTETRA     13267       1    2984     120    3349     121
CTETRA     13268       1    2985    3349    2986     121
CTETRA     13269       1    3809     380    3810     477
CTETRA     13270       1    3779    1354    3780    2630
CTETRA     13271       1    1405    2782    2781    1094
CTETRA     13272       1    2654     686     477     697
CTETRA     13273       1    3782    1348    1345    1028
CTETRA     13274       1    3808     478     380     686
CTETRA     13275       1    2503    1155     688     471
CTETRA     13276       1    2220    2700     525     526
CTETRA     13277       1    2786    1156    2800    1022
CTETRA     13278       1    1341    1028    1344    1027
CTETRA     13279       1    3778    1360    1357    2631
CTETRA     13280       1     478     279     686     490
CTETRA     13281       1    3888    3889    1364    2831
CTETRA     13282       1    3563     270     408     273
CTETRA     13283       1     957     315     221     374
CTETRA     13284       1     685     697     683     682
CTETRA     13285       1    2800    1156     418    1022
CTETRA     13286       1    3500    3810     380    1140
CTETRA     13287       1     271     684     288     273
CTETRA     13288       1    3398     849    1718     706
CTETRA     13289       1    1373    1376    2749     404
CTETRA     13290       1    3772    1378    1375     405
CTETRA     13291       1    3499    3811    3500     290
CTETRA     13292       1    1397    1401    1400     442
CTETRA     13293       1    3811     290     959    1141
CTETRA     13294       1    3792    1403    2720    2721
CTETRA     13295       1    1201    1195     687     403
CTETRA     13296       1    2992    2993    1443    1046
CTETRA     13297       1    3122    1459    1458      98
CTETRA     13298       1    1661      94     115      95
CTETRA     13299       1    1456     546    1457     232
CTETRA     13300       1     647    1132     374     234
CTETRA     13301       1    1698    1132    1700     234
CTETRA     13302       1    2995    2996    1017     907
CTETRA     13303       1    2978    3353    2979     546
CTETRA     13304       1    1131     230     981     378
CTETRA     13305       1    2977    1697    3353     546
CTETRA     13306       1    2997    3599    1019    1018
CTETRA     13307       1     423     987     445     398
CTETRA     13308       1    2437     446     984     985
CTETRA     13309       1    3138    1566    1564     566
CTETRA     13310       1    3016    1478    1479     396
CTETRA     13311       1    3018     567    1477     393
CTETRA     13312       1    3251    1566     364    1025
CTETRA     13313       1    3981    1656     379     114
CTETRA     13314       1    3131    1650    1651     106
CTETRA     13315       1    2999    1453    1452    1020
CTETRA     13316       1     870     549     919     569
CTETRA     13317       1    2094     426     423     433
CTETRA     13318       1     919     107     152     549
CTETRA     13319       1    2997    2998    1020    1019
CTETRA     13320       1     522      74     483     469
CTETRA     13321       1    3580    3989    3254      68
CTETRA     13322       1    1761    1776    1775    1013
CTETRA     13323       1    3060    1234    3061      62
CTETRA     13324       1    3580    1946    3581     141
CTETRA     13325       1    1974    1975    1989     140
CTETRA     13326       1     164     166     165     159
CTETRA     13327       1    3190    3191    1746    1505
CTETRA     13328       1    3189    3190    1745    1493
CTETRA     13329       1    2908    1223    1221    1216
CTETRA     13330       1     950     656     654     652
CTETRA     13331       1    2915    1234    1232      61
CTETRA     13332       1    3649    2347     361     320
CTETRA     13333       1    2347     357     361     320
CTETRA     13334       1    1779     858     859    1136
CTETRA     13335       1      38    1187     964     360
CTETRA     13336       1    2891    3649     361     262
CTETRA     13337       1     361     643     644     360
CTETRA     13338       1    1165     875    1181     569
CTETRA     13339       1    3020    3695    3021    1165
CTETRA     13340       1    1098     870    1048    1046
CTETRA     13341       1    3057    1497    1496     775
CTETRA     13342       1    1726     497     168     439
CTETRA     13343       1     754     252     254     751
CTETRA     13344       1    3177    2322    2318     999
CTETRA     13345       1      45     440    1184     437
CTETRA     13346       1    3202    1833    1512    1514
CTETRA     13347       1    2318     438    2329     999
CTETRA     13348       1    1678     754     252     254
CTETRA     13349       1    2292    2296     568     286
CTETRA     13350       1    1373    1377    1376     404
CTETRA     13351       1    1431     400    1434     621
CTETRA     13352       1    2835     687    2841     220
CTETRA     13353       1    2655    2662     697     220
CTETRA     13354       1    2836     683    2838     220
CTETRA     13355       1    3878     277    3879     685
CTETRA     13356       1    3877     277    3878     684
CTETRA     13357       1    3065    1522    1519     773
CTETRA     13358       1    2556    2558    2559     185
CTETRA     13359       1    2555    2556    2559     105
CTETRA     13360       1    2556    2557     189     105
CTETRA     13361       1    2479     105     189      69
CTETRA     13362       1    1404    1408    1407    1022
CTETRA     13363       1    1399    2783    1402    1034
CTETRA     13364       1    3105    1548    1550     565
CTETRA     13365       1    3102    2284    3103     528
CTETRA     13366       1    3235    1935    1936    1543
CTETRA     13367       1    3234    3235    1936    1543
CTETRA     13368       1    2719    1144    1193     415
CTETRA     13369       1    3793    1403    1406     417
CTETRA     13370       1    3793    1406    2724     417
CTETRA     13371       1    1920     498    1921     496
CTETRA     13372       1    1920    1921    1935     502
CTETRA     13373       1    2919    1609    1611     739
CTETRA     13374       1    1407    1411    1410     418
CTETRA     13375       1     922     415    1205     831
CTETRA     13376       1    2719    1205     415     416
CTETRA     13377       1    3234    1543    1936    1547
CTETRA     13378       1    3029    3030    1471     978
CTETRA     13379       1    1361    1364    2831    1005
CTETRA     13380       1    3691     406    1185    1074
CTETRA     13381       1    1652    1654    1653     314
CTETRA     13382       1    3246    3247    1560     917
CTETRA     13383       1    2290     906     909     551
CTETRA     13384       1      78     304      53      54
CTETRA     13385       1    3002    3995    3408    3595
CTETRA     13386       1    1406    1409    2724     416
CTETRA     13387       1    3021    1181    3022     874
CTETRA     13388       1    2296    1139     544     286
CTETRA     13389       1    3524    3525     519    1148
CTETRA     13390       1    3269    2064    2065     454
CTETRA     13391       1     406    1185    1074     407
CTETRA     13392       1    3321    3428    3427    1173
CTETRA     13393       1    3321    1630    1629    1147
CTETRA     13394       1    1461     385     370     379
CTETRA     13395       1     567     559     870     549
CTETRA     13396       1    3130    3131    1651    1048
CTETRA     13397       1    2997    1452    1451    1020
CTETRA     13398       1    1649    1655     148    1064
CTETRA     13399       1     843     271    1201    1168
CTETRA     13400       1    2919    2920    1231    1118
CTETRA     13401       1    3249    3250    1559     364
CTETRA     13402       1    1454    1098    1017    1048
CTETRA     13403       1     316     154     221     155
CTETRA     13404       1    1648    1064     960    1040
CTETRA     13405       1    2719     415    1193     416
CTETRA     13406       1    3277    2918    3278    1609
CTETRA     13407       1    2804     922     835     923
CTETRA     13408       1    3031    3369    3032     981
CTETRA     13409       1    2671     922    2682    1144
CTETRA     13410       1    2671     922    1144    1205
CTETRA     13411       1    2798    2804     922    1144
CTETRA     13412       1    3048    3378    1686    1688
CTETRA     13413       1    3009    3380    3010     186
CTETRA     13414       1    3870    3871     991     989
CTETRA     13415       1    1714     591     283     613
CTETRA     13416       1    3382    3506    3872     283
CTETRA     13417       1     492      57      59      56
CTETRA     13418       1    3382    1714    3507     283
CTETRA     13419       1    1201    1195     586    1168
CTETRA     13420       1    3408    1683    3363     876
CTETRA     13421       1    3008    3379    3380    1680
CTETRA     13422       1     356     589     613     173
CTETRA     13423       1    1713     356     481     589
CTETRA     13424       1    3361    1682    1679     151
CTETRA     13425       1    1679    1680    1686     132
CTETRA     13426       1    3812    1141     959     586
CTETRA     13427       1    1380    1382    1383     587
CTETRA     13428       1    3500    1140     380     289
CTETRA     13429       1    3159    2304    3160       5
CTETRA     13430       1    1763    1779    1778     898
CTETRA     13431       1    3497     959    3498       6
CTETRA     13432       1    3499     290    3500       4
CTETRA     13433       1    3062     821    1241     822
CTETRA     13434       1    3591     861     786     855
CTETRA     13435       1    3135    1488    1487    1105
CTETRA     13436       1     450     240     507     118
CTETRA     13437       1     853     314     121     223
CTETRA     13438       1    1794    1795    1052     859
CTETRA     13439       1    3591     857    1795     855
CTETRA     13440       1    1130    1143     725    1121
CTETRA     13441       1    3688    3689     427    1164
CTETRA     13442       1     723     733    1143     734
CTETRA     13443       1     951    1145     246     727
CTETRA     13444       1    3962     429     977     804
CTETRA     13445       1     636     658     922    1043
CTETRA     13446       1    3024    3364    1709     592
CTETRA     13447       1    2765    2772    1143     801
CTETRA     13448       1    2933     390    1261     196
CTETRA     13449       1    1268     204     195     772
CTETRA     13450       1    2930    1268     204     195
CTETRA     13451       1     197     736     822     860
CTETRA     13452       1    1808    1823     945     199
CTETRA     13453       1     248    1045     249     564
CTETRA     13454       1    1361    1365    1364    1005
CTETRA     13455       1    1151     462     349     645
CTETRA     13456       1    1781    1782     344     352
CTETRA     13457       1    3728    2550    1151     462
CTETRA     13458       1    3866    3572    3867     372
CTETRA     13459       1    1071    1126    1024     819
CTETRA     13460       1    3571    3572    2331     412
CTETRA     13461       1    1151     349     462    1210
CTETRA     13462       1     357    1137     349     359
CTETRA     13463       1    3645     933    3646     466
CTETRA     13464       1    1719    1722    1723     503
CTETRA     13465       1    3400    3495    3494     365
CTETRA     13466       1    3117    1723    3118     707
CTETRA     13467       1    2074    2415    2405    1096
CTETRA     13468       1    3856     168    1726     497
CTETRA     13469       1    3856    1728    1726     168
CTETRA     13470       1    2349     984    2352     340
CTETRA     13471       1    3293    2928    2927     641
CTETRA     13472       1    3559    3882    3881     991
CTETRA     13473       1    3559     990     991     509
CTETRA     13474       1    3561     277     276     685
CTETRA     13475       1    1891     250     764     498
CTETRA     13476       1    1876    1891     994     764
CTETRA     13477       1    3440     562    3763     201
CTETRA     13478       1    3518    3519    2296    1139
CTETRA     13479       1    1737    1752    1751     512
CTETRA     13480       1    2889    1218    1237     346
CTETRA     13481       1    1736    1507    1494     512
CTETRA     13482       1    3050    1237    1218     654
CTETRA     13483       1     346     355     348     347
CTETRA     13484       1    3457     975    3458     854
CTETRA     13485       1    1904     245     250     242
CTETRA     13486       1    1737    1738    1752     656
CTETRA     13487       1    1758    1759     774    1059
CTETRA     13488       1     298    1058     565     299
CTETRA     13489       1     792     699     841     785
CTETRA     13490       1    1844    1845    1859    1166
CTETRA     13491       1    3056    1059    1496      50
CTETRA     13492       1    3056    1220    1222      50
CTETRA     13493       1    1743    1499    1496      50
CTETRA     13494       1    1234      61    1129      62
CTETRA     13495       1    1748    1763      62     823
CTETRA     13496       1    1806     941    1089      24
CTETRA     13497       1    1601    1604    1603     776
CTETRA     13498       1    1828    1829    1516    1024
CTETRA     13499       1     994     785     499     249
CTETRA     13500       1    1904     250    1905     242
CTETRA     13501       1    2252     770     765     771
CTETRA     13502       1    3199    1830    1831    1511
CTETRA     13503       1    3073    1511    1515     668
CTETRA     13504       1    2586    2588    2587    1116
CTETRA     13505       1    3201    1832    1514    1515
CTETRA     13506       1    3004     876    1683     370
CTETRA     13507       1    1762    1763     389      62
CTETRA     13508       1    1607    1608    1610     824
CTETRA     13509       1    2932    1612    2933     196
CTETRA     13510       1    1610     390     196     942
CTETRA     13511       1    3589    3590    1765     862
CTETRA     13512       1    1761     389    1013      61
CTETRA     13513       1    3588    1750    1508     712
CTETRA     13514       1    1266     207    1080     208
CTETRA     13515       1    3222    1532    1843    1533
CTETRA     13516       1    1860    1060    1045    1166
CTETRA     13517       1     389      23      24      61
CTETRA     13518       1    2896     938    2897     937
CTETRA     13519       1    3083    1527    1534    1054
CTETRA     13520       1     574     758     757     660
CTETRA     13521       1    1281    1282    1289     340
CTETRA     13522       1    3643     160    3644    1208
CTETRA     13523       1    2956    3727     331     332
CTETRA     13524       1    2349    2435    2434     985
CTETRA     13525       1    1878    1893    1892     715
CTETRA     13526       1    3449    2253     766     856
CTETRA     13527       1    3449    3998    2255     719
CTETRA     13528       1    3327    3452    3451     190
CTETRA     13529       1    1883    1898    1897    1112
CTETRA     13530       1    1764    1780    1779     899
CTETRA     13531       1    1915    1930     800      79
CTETRA     13532       1    1867    1868    1883     175
CTETRA     13533       1    3134    1461    1462     379
CTETRA     13534       1    2274     881    2276     993
CTETRA     13535       1    3338    3476     802     376
CTETRA     13536       1    3091    2244    2240     176
CTETRA     13537       1    3107    1549     511     301
CTETRA     13538       1    1917    1918    1932     299
CTETRA     13539       1    1871    1872    1886     561
CTETRA     13540       1    3462    3463    2288     638
CTETRA     13541       1    1933     565    1548     299
CTETRA     13542       1    3019    1477     567     569
CTETRA     13543       1    3461    3462    2288    1145
CTETRA     13544       1     802     376     793     795
CTETRA     13545       1    3476     793     802     376
CTETRA     13546       1    3099    2282    3100    1178
CTETRA     13547       1    1631    1632     802     376
CTETRA     13548       1    3478    2270     793     557
CTETRA     13549       1    1280    2436    1290     341
CTETRA     13550       1    1749    1506    1503     823
CTETRA     13551       1    1631     802     803     376
CTETRA     13552       1     799     800     803     795
CTETRA     13553       1     267     515     268     255
CTETRA     13554       1    3235    3236    1935    1550
CTETRA     13555       1    3211    1855    1854    1535
CTETRA     13556       1    1585     550    1119    1177
CTETRA     13557       1    3574    1870    1855     897
CTETRA     13558       1    2295    1177     568     544
CTETRA     13559       1    3153    2293    3154     550
CTETRA     13560       1    3391     544    1734     520
CTETRA     13561       1    3573    3210    3987    1540
CTETRA     13562       1    1119     550     909     552
CTETRA     13563       1    3391    3522    3521     520
CTETRA     13564       1    3056    1222    1059      50
CTETRA     13565       1    1786    1801     669     585
CTETRA     13566       1    2968     900     879     114
CTETRA     13567       1    1458    1459     238      98
CTETRA     13568       1    1648    1064     316     960
CTETRA     13569       1    1655    1659     148     115
CTETRA     13570       1    1655    1656     115     379
CTETRA     13571       1    1951    1952    1966     522
CTETRA     13572       1    1279    1289    1291     339
CTETRA     13573       1    1573     321    1577    1044
CTETRA     13574       1    1969    1970    1984      74
CTETRA     13575       1     945      29    1136     942
CTETRA     13576       1     858     737     822     860
CTETRA     13577       1    3263    1044     558     780
CTETRA     13578       1    3263    1577     558    1044
CTETRA     13579       1    3265    3266    1119     910
CTETRA     13580       1    1583     434    1586    1138
CTETRA     13581       1      43      16      72     483
CTETRA     13582       1      43      16     521       9
CTETRA     13583       1     113      16     521     483
CTETRA     13584       1    3265    1119    1573    1044
CTETRA     13585       1    1988    2003    2002     480
CTETRA     13586       1    1573     909     321    1044
CTETRA     13587       1     558    1044     321     326
CTETRA     13588       1     908     296     302     752
CTETRA     13589       1    1712    1715    1713     589
CTETRA     13590       1    2319     253    1007     966
CTETRA     13591       1    2997    2998    1452    1020
CTETRA     13592       1    1760    1775    1008    1013
CTETRA     13593       1    1223    1009    1224     775
CTETRA     13594       1    3059    1015      21      61
CTETRA     13595       1    1577     850     558     323
CTETRA     13596       1    3267    1138    1586    1177
CTETRA     13597       1    3155    1573     909     321
CTETRA     13598       1    3271    2887    2886    1077
CTETRA     13599       1    3155    2308    3156     321
CTETRA     13600       1    1201     586     718    1168
CTETRA     13601       1    3155     909    2309     321
CTETRA     13602       1    2309     321     909     906
CTETRA     13603       1    2225    2226     915     525
CTETRA     13604       1    3856    3549    3548     168
CTETRA     13605       1    3062    1241    3063     822
CTETRA     13606       1    1726     435    1179     439
CTETRA     13607       1    1684     911     147     191
CTETRA     13608       1    2328     999     168     169
CTETRA     13609       1    2102    2112    2110     690
CTETRA     13610       1    3712    2521    2510     475
CTETRA     13611       1    3178    2318    2329     999
CTETRA     13612       1    2375     689    2376     690
CTETRA     13613       1    2113    2115    2114     536
CTETRA     13614       1    3856    3548    1728     168
CTETRA     13615       1      45      46     280     440
CTETRA     13616       1    3179    3984    1671     169
CTETRA     13617       1    2509    2512    2513     690
CTETRA     13618       1    3175     969    1678     257
CTETRA     13619       1     436     965     972     286
CTETRA     13620       1    3178    2329    2328     999
CTETRA     13621       1     866     736     197     863
CTETRA     13622       1     408     710     844     971
CTETRA     13623       1    3201    1831    1832    1515
CTETRA     13624       1    3396     849    3531     322
CTETRA     13625       1    2846    2847    2873    1111
CTETRA     13626       1     241     243     251     244
CTETRA     13627       1     723     733     562    1057
CTETRA     13628       1     832     749     753     297
CTETRA     13629       1    2874    1103    2880    1068
CTETRA     13630       1    2703    1199    1068    1120
CTETRA     13631       1    3872    3805    2173    1036
CTETRA     13632       1    2758     651    1041     864
CTETRA     13633       1    3953    3954    2176    2756
CTETRA     13634       1    2792    1194    1065    1066
CTETRA     13635       1     764     767     827     501
CTETRA     13636       1    1400    2721     442    1022
CTETRA     13637       1    3457    3963    3962     975
CTETRA     13638       1    2728    1041    2731    1194
CTETRA     13639       1    2706    2725    2731    1066
CTETRA     13640       1    2759    2792    2760    1066
CTETRA     13641       1    2728     651    2733    1041
CTETRA     13642       1    2733    1041     657    1049
CTETRA     13643       1    2758     651    2793    1041
CTETRA     13644       1    2698    2702     834     923
CTETRA     13645       1    2197    2201    2200     650
CTETRA     13646       1    2680    2699     306     731
CTETRA     13647       1    2195    2199     657    1049
CTETRA     13648       1    2759    2876    2875    1103
CTETRA     13649       1    2771    1053    1203     912
CTETRA     13650       1    2702     914     834     923
CTETRA     13651       1    3920    3921    2230    2751
CTETRA     13652       1     912     834     914     923
CTETRA     13653       1    2771    1053     912     763
CTETRA     13654       1    2697     731     834     526
CTETRA     13655       1    2967    3359    2968     900
CTETRA     13656       1    3976    3113    3307    3445
CTETRA     13657       1    1862    1877    1876     716
CTETRA     13658       1    3307    3446    3445    1646
CTETRA     13659       1    2968     879     900     902
CTETRA     13660       1    1847    1531    1848    1067
CTETRA     13661       1    2968    1463     414     114
CTETRA     13662       1    3445    2258    2252     765
CTETRA     13663       1    3445    3446    2258     765
CTETRA     13664       1     903     134     182     183
CTETRA     13665       1    3084    3085    1530     771
CTETRA     13666       1      94     883     117      98
CTETRA     13667       1    2259     765     766     771
CTETRA     13668       1    3085    2259    2253     766
CTETRA     13669       1    1690     903     116     112
CTETRA     13670       1    2969    3358     879     902
CTETRA     13671       1    3447     766    2259     765
CTETRA     13672       1    3308    1646    1643     767
CTETRA     13673       1    3445     765     841     767
CTETRA     13674       1    1459     238      98      96
CTETRA     13675       1    3078    1524    1510     209
CTETRA     13676       1    2970     879      99      95
CTETRA     13677       1    1207     502     494     243
CTETRA     13678       1    1936     500    1543     502
CTETRA     13679       1    1659    1661      94     115
CTETRA     13680       1    3111    3975    3454     530
CTETRA     13681       1    3358    1687    1689     879
CTETRA     13682       1    1689      99     879     116
CTETRA     13683       1    1840    1523    1519     571
CTETRA     13684       1    1261     196     390     947
CTETRA     13685       1    1257    1268     195     772
CTETRA     13686       1    1840     572    1523     571
CTETRA     13687       1    3457    3458    2289     854
CTETRA     13688       1    1839    1840    1519     773
CTETRA     13689       1    3066     773     947     946
CTETRA     13690       1    3392     519    1733    1148
CTETRA     13691       1    3391    1734    1735     520
CTETRA     13692       1    3153    1584     568    1177
CTETRA     13693       1    3523    3524    2294     519
CTETRA     13694       1     454     463     456     455
CTETRA     13695       1    1809    1052    1810     210
CTETRA     13696       1    1119     552     326     910
CTETRA     13697       1    3515    2303    2302     435
CTETRA     13698       1    1810    1825     210     787
CTETRA     13699       1    3065    1268    1257     772
CTETRA     13700       1    1754    1755     904     935
CTETRA     13701       1    3387    3388    3515     435
CTETRA     13702       1    1726     168    1728     439
CTETRA     13703       1    1741    1498      17      18
CTETRA     13704       1    3813     409    3814     587
CTETRA     13705       1    1741      17    1756     576
CTETRA     13706       1    2819    1108    2822     839
CTETRA     13707       1     304     296       7     294
CTETRA     13708       1     779     305     313     293
CTETRA     13709       1    1225     583      17      18
CTETRA     13710       1    3109    3110     659     663
CTETRA     13711       1     184     174     170     171
CTETRA     13712       1    3855    1726    1724     497
CTETRA     13713       1    2512     690     535     534
CTETRA     13714       1    1244     820    1263     819
CTETRA     13715       1    3798    2670    1418    1167
CTETRA     13716       1    2102     475     690     642
CTETRA     13717       1    1770    1785     575     574
CTETRA     13718       1    2444    2445    2448     672
CTETRA     13719       1    2418    2429    2419     675
CTETRA     13720       1    2492    2590    2592     419
CTETRA     13721       1    2445    2449    2448     338
CTETRA     13722       1    3055    1498      51     602
CTETRA     13723       1    1220      49     578      50
CTETRA     13724       1    3178     999    2328     169
CTETRA     13725       1    2363    2364    2460     688
CTETRA     13726       1    3859     968    1732    1176
CTETRA     13727       1    2506    1023     472     258
CTETRA     13728       1    3545    2318     968    1176
CTETRA     13729       1    2507     474    2517     472
CTETRA     13730       1    2452    2479     105     185
CTETRA     13731       1    3048    1688    1686     903
CTETRA     13732       1    2558     185    1155     471
CTETRA     13733       1    3359    1685    1687     902
CTETRA     13734       1    1683     370     876     191
CTETRA     13735       1    2559    2560     105    1023
CTETRA     13736       1    2564     187    2574     680
CTETRA     13737       1    3967    1679    3360     900
CTETRA     13738       1    2464    1202    1182     676
CTETRA     13739       1    2465    2467    2471    1182
CTETRA     13740       1    3359     900    1685     902
CTETRA     13741       1    2119    2123    2467    1182
CTETRA     13742       1    3673    3674    1304    2483
CTETRA     13743       1    1461     370    1462     379
CTETRA     13744       1    2967    3967    3360     900
CTETRA     13745       1    3048     903    1686     182
CTETRA     13746       1    1647     316    1653     314
CTETRA     13747       1     110     137      19     133
CTETRA     13748       1    1437    1438     395     431
CTETRA     13749       1    3982    1490    1486     111
CTETRA     13750       1    1571     198     110     111
CTETRA     13751       1    2219     525     834     526
CTETRA     13752       1    3254      67     110     198
CTETRA     13753       1    2113    2365    2379     536
CTETRA     13754       1    2465    2466    2474     470
CTETRA     13755       1    2898    1230     937     756
CTETRA     13756       1    1802     662     585     579
CTETRA     13757       1     662     667    1031     668
CTETRA     13758       1    2534    2547    2546     461
CTETRA     13759       1    2532    2533    2545     983
CTETRA     13760       1    1786    1801    1800     669
CTETRA     13761       1    3240     110      19    1016
CTETRA     13762       1    2388     265     692     266
CTETRA     13763       1    3735    1293    3736    2545
CTETRA     13764       1    3736    1301    2532     983
CTETRA     13765       1    2386    2410    2409    1196
CTETRA     13766       1    1301     842    2532     983
CTETRA     13767       1    2394     842    2397     983
CTETRA     13768       1    2385    2394    2386     983
CTETRA     13769       1    2897     938    2898     937
CTETRA     13770       1    3149    3982    1572     111
CTETRA     13771       1     106     384     109     383
CTETRA     13772       1     150     138      12     388
CTETRA     13773       1     149     387     379     383
CTETRA     13774       1    2688     914     915     525
CTETRA     13775       1     198     188     193     131
CTETRA     13776       1    3023    3024    1475     592
CTETRA     13777       1    1649    1650    1655    1064
CTETRA     13778       1    3750    1271    1272    2573
CTETRA     13779       1     315     221     222     223
CTETRA     13780       1     362      13       8     375
CTETRA     13781       1    1455     100    1459      96
CTETRA     13782       1    2174     531     622    1036
CTETRA     13783       1     119    1021     315     378
CTETRA     13784       1     508     837     685     490
CTETRA     13785       1    1064     106     149     384
CTETRA     13786       1    1650     379     149     387
CTETRA     13787       1    2972    3357    1691      99
CTETRA     13788       1    3847    2167    3848    2660
CTETRA     13789       1    1741    1498    1742     602
CTETRA     13790       1    3121    1661      95      96
CTETRA     13791       1    3407     777     432     191
CTETRA     13792       1     553     704     555     741
CTETRA     13793       1    3836    2134    3837    2613
CTETRA     13794       1    1938    1939    1544     610
CTETRA     13795       1     744      33     745      35
CTETRA     13796       1    3837    2613    2134    2646
CTETRA     13797       1    2134    2646    2613    1161
CTETRA     13798       1      32    1037     610    1178
CTETRA     13799       1    1638      82    1639      33
CTETRA     13800       1    3331    3488    3487      33
CTETRA     13801       1    3331    1638    1639      33
CTETRA     13802       1     304       7      54     294
CTETRA     13803       1    2624     930     929     953
CTETRA     13804       1    3561    3879    3562     277
CTETRA     13805       1    2184    2703    2187    1199
CTETRA     13806       1    2608    2609     791     531
CTETRA     13807       1    3388     435    1728     284
CTETRA     13808       1    2840     685    2842     837
CTETRA     13809       1     954     955     256    1158
CTETRA     13810       1    3563    3878    3877     277
CTETRA     13811       1    1341    1345    1028     830
CTETRA     13812       1    3560    3880    3561     508
CTETRA     13813       1    3559    3881    3560     508
CTETRA     13814       1     930    1026    1027     830
CTETRA     13815       1    3055    1225    1226      51
CTETRA     13816       1    3561     408    2339     509
CTETRA     13817       1    3808     380     477     686
CTETRA     13818       1    2167    2171     531     532
CTETRA     13819       1     714      57     791     988
CTETRA     13820       1    2837    2838    1050     635
CTETRA     13821       1    3648    3649    2347     361
CTETRA     13822       1    2140    2645    2646     256
CTETRA     13823       1    1342    2634    1345     830
CTETRA     13824       1    2616    2624    2627     929
CTETRA     13825       1    1877     716    1878     715
CTETRA     13826       1    1863    1878     716     717
CTETRA     13827       1    3872    2173    2177    1036
CTETRA     13828       1     764     765     841     769
CTETRA     13829       1     615     616     431     620
CTETRA     13830       1     250     248     994     249
CTETRA     13831       1     716     856     766     771
CTETRA     13832       1     643     357     645     360
CTETRA     13833       1    3822    2217    3823    2696
CTETRA     13834       1    3053    3054    1495      18
CTETRA     13835       1    2893     391     643     932
CTETRA     13836       1    3904    2783    1399    2784
CTETRA     13837       1    2784    2785    2791    1034
CTETRA     13838       1    1395    1396    1399    1034
CTETRA     13839       1    2213     731    2214     526
CTETRA     13840       1    2214     731    2699     526
CTETRA     13841       1    3923    3924    2221    2813
CTETRA     13842       1    2811    2814    2813     913
CTETRA     13843       1    2224     763    2812     913
CTETRA     13844       1    2637    2643    2641     211
CTETRA     13845       1    2817     812     781     211
CTETRA     13846       1    2680    2699     731     526
CTETRA     13847       1    2658    2666     403     928
CTETRA     13848       1    1364    1365    1368    1005
CTETRA     13849       1    2638    2641    2647     213
CTETRA     13850       1    2596     403     402     405
CTETRA     13851       1    2804     835    2807     923
CTETRA     13852       1    2212    2809    2810     167
CTETRA     13853       1    1069    1029    1068    1199
CTETRA     13854       1    2179    2180    2183    1029
CTETRA     13855       1    2131    1029    1069    1199
CTETRA     13856       1    2136    2868    2847    1111
CTETRA     13857       1    3939    2136    2131    2868
CTETRA     13858       1    2697     834    2701     525
CTETRA     13859       1    3472    3473    2274     881
CTETRA     13860       1    3340    3341    1629     925
CTETRA     13861       1    3473    2276     881     799
CTETRA     13862       1     805     604     708     795
CTETRA     13863       1    2680     731    2697     526
CTETRA     13864       1    2219    2220    2223     525
CTETRA     13865       1    2772    1143     801     912
CTETRA     13866       1    2217    2696    2220     526
CTETRA     13867       1    1754     935     904     797
CTETRA     13868       1    2220    2696    2700     526
CTETRA     13869       1    3340     925    1629     881
CTETRA     13870       1    1907    1908    1922     825
CTETRA     13871       1     284     436     972     286
CTETRA     13872       1    3504     492      64      63
CTETRA     13873       1    1119     909    1044     326
CTETRA     13874       1    1619    1620    1621    1075
CTETRA     13875       1    2218    2221    2813     913
CTETRA     13876       1    2688    2701    2702     914
CTETRA     13877       1    2228     915    1188     763
CTETRA     13878       1    3962    2883    2741     977
CTETRA     13879       1    3385     443    1724    1179
CTETRA     13880       1    3384    1712    3510     614
CTETRA     13881       1    2773     922    2804     923
CTETRA     13882       1    1185     445     974     419
CTETRA     13883       1     909     321    1044     326
CTETRA     13884       1    2255     856     719     811
CTETRA     13885       1    1149     886      89      84
CTETRA     13886       1     380     477     686     682
CTETRA     13887       1    1615    1080    1616     646
CTETRA     13888       1    3163    2291    2298      87
CTETRA     13889       1    1573    1119    1585     909
CTETRA     13890       1     329     325     551     255
CTETRA     13891       1    3541    2321    2319     966
CTETRA     13892       1    3340    3472    3471     881
CTETRA     13893       1    3438     486     630     627
CTETRA     13894       1    1917    1932    1931     301
CTETRA     13895       1    1841     516     895    1123
CTETRA     13896       1    3573     895    3574     897
CTETRA     13897       1    3027    3366    1095     214
CTETRA     13898       1    3366    1708    1706     214
CTETRA     13899       1    3027    3366    3367    1095
CTETRA     13900       1    3340    1629    1630     881
CTETRA     13901       1    3697    3688    3687     319
CTETRA     13902       1    3407     425    2095     319
CTETRA     13903       1    3014    3688    3015     427
CTETRA     13904       1    3697    2494    1164     426
CTETRA     13905       1    3012    1468    1487     878
CTETRA     13906       1      28     943     803    1146
CTETRA     13907       1     566     919     549     569
CTETRA     13908       1    3131    1451    1452    1020
CTETRA     13909       1    2966    1266    1262     207
CTETRA     13910       1     434     436     284     286
CTETRA     13911       1    3131    3132    1650     387
CTETRA     13912       1    3857    1728    3548     438
CTETRA     13913       1    3970    1266    1265     572
CTETRA     13914       1    3389    3390    3519    1139
CTETRA     13915       1     883     884     957     232
CTETRA     13916       1    3860    1007    1735     966
CTETRA     13917       1    3292    1616    1615    1080
CTETRA     13918       1    3517    2292    2303     286
CTETRA     13919       1     876     385     671     777
CTETRA     13920       1     153     225     215     217
CTETRA     13921       1    1647     316     314     317
CTETRA     13922       1    3543    3544    2322     968
CTETRA     13923       1    3857    3546    3858    1176
CTETRA     13924       1    3388    3389    3517     285
CTETRA     13925       1    3559    2317     990     509
CTETRA     13926       1     364     152     153      10
CTETRA     13927       1    3166    3167    1663     971
CTETRA     13928       1    2595    2656    2655    1195
CTETRA     13929       1    3129    1443    3130    1048
CTETRA     13930       1     427    1164     398     425
CTETRA     13931       1    1580    1581      53      55
CTETRA     13932       1    1650    1064    1651     106
CTETRA     13933       1    3560     508    3561     509
CTETRA     13934       1    3805     282     714     791
CTETRA     13935       1    1376    2747    2749      37
CTETRA     13936       1    3561    3880    3879     685
CTETRA     13937       1     515     257     330     255
CTETRA     13938       1    1653     316    1091     314
CTETRA     13939       1    3561    2339    2340     509
CTETRA     13940       1    1889    1904    1903     245
CTETRA     13941       1    3106    2288    2265     511
CTETRA     13942       1    3160    3161    1582       1
CTETRA     13943       1    3561    3562     408     277
CTETRA     13944       1    3189    1493    1745    1497
CTETRA     13945       1    1627     489    1628     126
CTETRA     13946       1    3106    1549    1548     299
CTETRA     13947       1    2231    1186    1188     533
CTETRA     13948       1    3390    1732    1734    1139
CTETRA     13949       1    1013      24      21      61
CTETRA     13950       1    3271    2888    2887     348
CTETRA     13951       1    1887    1888     888     561
CTETRA     13952       1     638     541     123     920
CTETRA     13953       1    2943    2944    1247    1212
CTETRA     13954       1    1597    1598    1600     127
CTETRA     13955       1    1595    1596    1598     127
CTETRA     13956       1     888     125     889     920
CTETRA     13957       1    3575      28     894     369
CTETRA     13958       1    1276    1279    1278     341
CTETRA     13959       1    1280    1290    1289     341
CTETRA     13960       1    1835    1509    1513     996
CTETRA     13961       1    1278    1291    2581     339
CTETRA     13962       1    1089     995    1039    1115
CTETRA     13963       1    3858    3545    3544    1176
CTETRA     13964       1    3068    1243    3069     995
CTETRA     13965       1     963     328     327     330
CTETRA     13966       1    3006    1682    3361     151
CTETRA     13967       1     113      16      68     146
CTETRA     13968       1    3471     881    2274     993
CTETRA     13969       1    3603    2351    2352     936
CTETRA     13970       1    3465     124     123    1197
CTETRA     13971       1    3655    3656    1294    2387
CTETRA     13972       1    1295    1299    1300     287
CTETRA     13973       1    1297    2354    1299     287
CTETRA     13974       1    2546    1162     962    1196
CTETRA     13975       1    2385    2409    2412     962
CTETRA     13976       1    2878     930    2879     953
CTETRA     13977       1    3787    1388    3788    2714
CTETRA     13978       1    2762    2864    2860     828
CTETRA     13979       1    3466      47     124    1197
CTETRA     13980       1    3994    3464    3955     633
CTETRA     13981       1     671     424     777     425
CTETRA     13982       1    1416    1417    1420     415
CTETRA     13983       1     922    1144    1205     415
CTETRA     13984       1    1417    2778    1420     415
CTETRA     13985       1    3014    1468     432     396
CTETRA     13986       1    1468     432    1061     878
CTETRA     13987       1     427     425     432     319
CTETRA     13988       1    3461    3957    3462     637
CTETRA     13989       1    1164     426     398     425
CTETRA     13990       1    1460    1462     370     379
CTETRA     13991       1     170     441     174     750
CTETRA     13992       1    3015    3689    3016     427
CTETRA     13993       1     476     503     365     504
CTETRA     13994       1    3149    1572    1567     111
CTETRA     13995       1    3178    2328    3179     169
CTETRA     13996       1    3595    3596    2359     424
CTETRA     13997       1     290       3     289       4
CTETRA     13998       1    1663    1667     747     844
CTETRA     13999       1    3040    3373    3374    1696
CTETRA     14000       1     914     525     834     913
CTETRA     14001       1    1728    1730     284     438
CTETRA     14002       1    3058    1223    1224     775
CTETRA     14003       1    2907    2908    1221    1216
CTETRA     14004       1     849     705     328     327
CTETRA     14005       1    1006     267    1007     269
CTETRA     14006       1    3170    1665     749     847
CTETRA     14007       1    2915    2916    1234    1129
CTETRA     14008       1    3153     568    2295    1177
CTETRA     14009       1     322     329     327     324
CTETRA     14010       1    3190    1746    1493    1505
CTETRA     14011       1    2901     583    1593     584
CTETRA     14012       1    3060    3061    1504      62
CTETRA     14013       1     755     575     574     660
CTETRA     14014       1    1814     596    1815    1198
CTETRA     14015       1     916     578      49      50
CTETRA     14016       1    2898    3642    3641     940
CTETRA     14017       1    3110    2899    3641     940
CTETRA     14018       1    1247    1085    1248    1104
CTETRA     14019       1    1084    1085    1086    1082
CTETRA     14020       1    1818    1833    1832    1107
CTETRA     14021       1    2131    1069    2868    1111
CTETRA     14022       1    2915      23      86      61
CTETRA     14023       1    3071    1246    3072    1107
CTETRA     14024       1    1234    1129    1235      62
CTETRA     14025       1    2945    1085    1247    1212
CTETRA     14026       1    1025     548     566     549
CTETRA     14027       1    1774    1789    1081     128
CTETRA     14028       1    3066    3067    1520     206
CTETRA     14029       1    1743    1499      50     602
CTETRA     14030       1    3065    3066    1522     773
CTETRA     14031       1    3066    1520    1522     946
CTETRA     14032       1    1887    1888    1902     888
CTETRA     14033       1    2905    2906    1222     582
CTETRA     14034       1    3071    1107    1512    1104
CTETRA     14035       1     629     628    1121     627
CTETRA     14036       1    3574     895     894     897
CTETRA     14037       1    1854    1855    1870     897
CTETRA     14038       1    1084     662    1086    1107
CTETRA     14039       1    3574     894    1870     897
CTETRA     14040       1    1084     998    1212     127
CTETRA     14041       1    3057    1496    1059     775
CTETRA     14042       1    1247    1212    1085    1104
CTETRA     14043       1    1200     776     790    1206
CTETRA     14044       1    3210    1855    3211    1535
CTETRA     14045       1    1248    1085    1107    1104
CTETRA     14046       1    1200     996     998    1206
CTETRA     14047       1    3236    1548    1934    1550
CTETRA     14048       1    3105    1058    2287     299
CTETRA     14049       1      29      24      23    1174
CTETRA     14050       1    3111    3112     698     529
CTETRA     14051       1    3759    3760    2612     616
CTETRA     14052       1    1775    1008    1013    1090
CTETRA     14053       1     774    1009    1216    1059
CTETRA     14054       1      28     894    1147    1204
CTETRA     14055       1    1221    1222     582    1059
CTETRA     14056       1    2135    2139    2138    1111
CTETRA     14057       1    3322    3323    3430    1623
CTETRA     14058       1    3430    1623     905    1189
CTETRA     14059       1    3437    3766    3438     630
CTETRA     14060       1    1680    1682    1681     147
CTETRA     14061       1    3399    3494    3493     476
CTETRA     14062       1    2310     366    2311     365
CTETRA     14063       1    2873    2881    1069    1068
CTETRA     14064       1    3571     411     368     372
CTETRA     14065       1    3321    3322    3428    1629
CTETRA     14066       1    3492    1721     476     706
CTETRA     14067       1    3399    3492    1721     476
CTETRA     14068       1    2311     476     365     367
CTETRA     14069       1    3383    3508    3507     591
CTETRA     14070       1    2228    2232    2231    1188
CTETRA     14071       1    3854    3553    3552     180
CTETRA     14072       1    2323     172     481     590
CTETRA     14073       1    1714     283    1717     613
CTETRA     14074       1    3332    3485    3333    1637
CTETRA     14075       1    3854    1712    3553     180
CTETRA     14076       1    2326     497     180     169
CTETRA     14077       1     180     181     481     173
CTETRA     14078       1    3853    1713    3555     481
CTETRA     14079       1    3165    2323    2325     590
CTETRA     14080       1    3553    2323     180     481
CTETRA     14081       1      76     280      46      77
CTETRA     14082       1    1574     281      76      87
CTETRA     14083       1     968     438     965     972
CTETRA     14084       1    1588      45      46     280
CTETRA     14085       1    3255      46      45     313
CTETRA     14086       1    3164    2297    3983     280
CTETRA     14087       1    3251     364     145    1025
CTETRA     14088       1    3052    1227    3053     935
CTETRA     14089       1    1738    1739    1753     950
CTETRA     14090       1    1739    1740    1754     797
CTETRA     14091       1    3123    3124    1662     884
CTETRA     14092       1    1739    1500    1502     797
CTETRA     14093       1    1668    1675     832     754
CTETRA     14094       1    3266    3267    1584    1177
CTETRA     14095       1    3183    1739    1500    1502
CTETRA     14096       1    3051    3052    1500     796
CTETRA     14097       1    2290    2309     909     906
CTETRA     14098       1    3176    2319    2321     969
CTETRA     14099       1    1675    1678     832     754
CTETRA     14100       1     214     216     318     222
CTETRA     14101       1    1733    1148     519     269
CTETRA     14102       1    3246    3247     917       8
CTETRA     14103       1    3173    2332    2334     846
CTETRA     14104       1    1669    1678    1675     754
CTETRA     14105       1    3863    1731     267     515
CTETRA     14106       1    3530    3531    2306     322
CTETRA     14107       1    3246     917    1561       8
CTETRA     14108       1    3380    1680    1681     186
CTETRA     14109       1    3142     917    1563     226
CTETRA     14110       1    3142    1472    1471     231
CTETRA     14111       1    3248    1062    1563      70
CTETRA     14112       1    3934    2871    2188    2872
CTETRA     14113       1    3149    1491    1489     183
CTETRA     14114       1    3047    3377    1688     903
CTETRA     14115       1     486     560     518     625
CTETRA     14116       1     476     372     503     706
CTETRA     14117       1    3064    1523     572     571
CTETRA     14118       1    2914      21    1603      23
CTETRA     14119       1     786     787     857     788
CTETRA     14120       1    2871    2872    2875    1030
CTETRA     14121       1    1763     898    1778     389
CTETRA     14122       1    1078     208     787    1079
CTETRA     14123       1    1743    1496    1059      50
CTETRA     14124       1     601     336     664     597
CTETRA     14125       1    3077    1244    1263     819
CTETRA     14126       1    2941    1600    2942     790
CTETRA     14127       1    3071    1247    1248    1104
CTETRA     14128       1    3073    1245    3074     665
CTETRA     14129       1     786    1078     787    1079
CTETRA     14130       1    1702     647     309     887
CTETRA     14131       1     547      52     546     887
CTETRA     14132       1    3196    1828    3197    1517
CTETRA     14133       1     846     328     963     330
CTETRA     14134       1    3863    1729    1731     515
CTETRA     14135       1    3861    3540    3539    1007
CTETRA     14136       1    3589    1765    1750     712
CTETRA     14137       1    3540    2319    1006    1007
CTETRA     14138       1    3539     267    1733    1007
CTETRA     14139       1    1749    1765    1764     712
CTETRA     14140       1    1676     753     832     749
CTETRA     14141       1    3175    1678    1669     257
CTETRA     14142       1    3862    3537    3863     267
CTETRA     14143       1    1849    1529    1850     612
CTETRA     14144       1    3862    1733    3539     267
CTETRA     14145       1    3087     811    2256     612
CTETRA     14146       1    3088    2256    2257     612
CTETRA     14147       1    1921     500    1936     502
CTETRA     14148       1    3268     312    3269    1138
CTETRA     14149       1     637     541     638     727
CTETRA     14150       1    3113    3445    3444     841
CTETRA     14151       1    1842    1533    1843     517
CTETRA     14152       1    1241      85    1035     822
CTETRA     14153       1    1669     252     846     257
CTETRA     14154       1    3430    3431    2245    1125
CTETRA     14155       1    1904    1919    1918     298
CTETRA     14156       1    3461    2288    2287    1145
CTETRA     14157       1    3265     463    3266     780
CTETRA     14158       1    3231    1939    1940    1545
CTETRA     14159       1    3522    3523    2293     520
CTETRA     14160       1    3154    2293    2294     550
CTETRA     14161       1    3154    3155    1573     909
CTETRA     14162       1    3233    1937    1938    1546
CTETRA     14163       1    3394    3528     906     514
CTETRA     14164       1    3724    2489    3725    1011
CTETRA     14165       1    2279     607     673     606
CTETRA     14166       1     274      67     198     137
CTETRA     14167       1    3249    1951    1950     521
CTETRA     14168       1    3136    1565    1558     274
CTETRA     14169       1    3002    3003    1442     385
CTETRA     14170       1    3408     876     671     777
CTETRA     14171       1    3694    2587    2500    1000
CTETRA     14172       1    3137    1479    1478     548
CTETRA     14173       1    2688    2701     914     525
CTETRA     14174       1    1564    1025    1565    1061
CTETRA     14175       1    3136    3137    1565    1061
CTETRA     14176       1    1468    1479    1061     396
CTETRA     14177       1     559     108     870     549
CTETRA     14178       1    2048    2049    2064     456
CTETRA     14179       1     548     396     109     877
CTETRA     14180       1    2688     915    2689     525
CTETRA     14181       1     274     198    1105     193
CTETRA     14182       1    3147    1481    3148     452
CTETRA     14183       1    3263    2059    3264     778
CTETRA     14184       1    3264    2059    2060     778
CTETRA     14185       1     304       5       1       7
CTETRA     14186       1    1693    1696    1695     239
CTETRA     14187       1    3154     909    1585     550
CTETRA     14188       1    2296     544     568     286
CTETRA     14189       1    2073    2074    2076    1096
CTETRA     14190       1    3146     452    1568     450
CTETRA     14191       1    3635    3636    2077    2405
CTETRA     14192       1    2071    2074    2073     537
CTETRA     14193       1    3242    1570     448     450
CTETRA     14194       1    1691      99    1692     236
CTETRA     14195       1    1691    1694    1693     236
CTETRA     14196       1    2102    2103    2112     475
CTETRA     14197       1    3043    3375    1692     371
CTETRA     14198       1    2105      81    2107     263
CTETRA     14199       1    2509    2510     689     690
CTETRA     14200       1    2124    1182    2566     470
CTETRA     14201       1    3375    1694    1692     371
CTETRA     14202       1    3703    2566    2124    2571
CTETRA     14203       1    3250    3251    1566     364
CTETRA     14204       1    2594     524    1074    1073
CTETRA     14205       1    2614    2712    2711    1069
CTETRA     14206       1    3139    1477    1480     566
CTETRA     14207       1    1559    1062     364     956
CTETRA     14208       1    2133    2711    2181    1161
CTETRA     14209       1    2132    2136    2135    1111
CTETRA     14210       1    3940    3941    2139    2856
CTETRA     14211       1    2135    2136    2139    1111
CTETRA     14212       1    2156     311    2160     976
CTETRA     14213       1    3946    2854    2157     311
CTETRA     14214       1     655     652     342     343
CTETRA     14215       1    2163    2855    2820     839
CTETRA     14216       1    2925    1239     197     736
CTETRA     14217       1    2147     880     256    1158
CTETRA     14218       1     259     348    1075     343
CTETRA     14219       1    1615    1616     866     646
CTETRA     14220       1    3949    3950    2166    2828
CTETRA     14221       1    2163    2820    2828     839
CTETRA     14222       1     861     786     646    1079
CTETRA     14223       1    2159    2160    2163     839
CTETRA     14224       1    3133    1442    1461     387
CTETRA     14225       1    3948    2163    2160    2855
CTETRA     14226       1    1826    1070    1510     209
CTETRA     14227       1    2965     207    1213    1076
CTETRA     14228       1     354     617     729     512
CTETRA     14229       1    3272    2886    2885    1077
CTETRA     14230       1     786     855     646     788
CTETRA     14231       1    3271    3272    1617    1077
CTETRA     14232       1    2834    2835    2836     220
CTETRA     14233       1    3823    2217    2214    2699
CTETRA     14234       1    3823    2696    2217    2699
CTETRA     14235       1    2789    2806    2802     306
CTETRA     14236       1    3443    2252    2263     792
CTETRA     14237       1    2824    2829    2834     219
CTETRA     14238       1    3976    3444    3113    3445
CTETRA     14239       1    3083    2263    2252     770
CTETRA     14240       1    2834     219     403     218
CTETRA     14241       1    1371    1374     404     405
CTETRA     14242       1    2597    2658    2657     403
CTETRA     14243       1    3333    3483    3334     704
CTETRA     14244       1    3562    3563     408     277
CTETRA     14245       1    1913    1929    1928     708
CTETRA     14246       1    3808    2654    2653     686
CTETRA     14247       1    2251     702     867     865
CTETRA     14248       1    3162    1581      55      87
CTETRA     14249       1    1630    1631     803     892
CTETRA     14250       1    3423    3424    2251     867
CTETRA     14251       1    1215      48      47     373
CTETRA     14252       1     380     288     682     289
CTETRA     14253       1    2214    2699    2217     526
CTETRA     14254       1    1935    1936    1543     502
CTETRA     14255       1    3458    2286    2289     241
CTETRA     14256       1    2217    2699    2696     526
CTETRA     14257       1    2718    1193     417     416
CTETRA     14258       1    2672    2681    2673    1093
CTETRA     14259       1    2801    2803    2802    1093
CTETRA     14260       1    1875    1890    1889     994
CTETRA     14261       1    3456    3457    2289     854
CTETRA     14262       1    2681    2682    2698     835
CTETRA     14263       1    2681     834     731     835
CTETRA     14264       1     832     754     254     751
CTETRA     14265       1    2673    2681     306    1093
CTETRA     14266       1    2268     704     973    1191
CTETRA     14267       1    2094    2359    2357     423
CTETRA     14268       1    2094    2357    2096     433
CTETRA     14269       1      88     886     740     745
CTETRA     14270       1    3608    2097    2096     421
CTETRA     14271       1     445    1117     446     447
CTETRA     14272       1    1637    1149    1638     745
CTETRA     14273       1    1911     553    1912     555
CTETRA     14274       1    1636     886    1637     745
CTETRA     14275       1     780     779     910     293
CTETRA     14276       1    2374     535     690     534
CTETRA     14277       1    3505     282    3506     283
CTETRA     14278       1    2473    1182     681     676
CTETRA     14279       1    2475     681     680     676
CTETRA     14280       1    2128    1155    2463     688
CTETRA     14281       1     992     990     590      59
CTETRA     14282       1     568    1138     434     436
CTETRA     14283       1    3653    1299    2354    2407
CTETRA     14284       1    2394    2397    2396     983
CTETRA     14285       1    2383    1097      80     265
CTETRA     14286       1     281      87     283      77
CTETRA     14287       1    3870    3882     991    1051
CTETRA     14288       1    2478    2480    2479     189
CTETRA     14289       1     685     686     279     490
CTETRA     14290       1    3166    2324    2317     971
CTETRA     14291       1    3165    3984    2323     172
CTETRA     14292       1    2505    1023     471     472
CTETRA     14293       1    2473     681    2475     676
CTETRA     14294       1    3673    1304    1319      69
CTETRA     14295       1    1671     172     184     169
CTETRA     14296       1    2552    2553    2563     189
CTETRA     14297       1    3673    1319    2485      69
CTETRA     14298       1    1315    2554    2557      65
CTETRA     14299       1    3165    2324    3166     971
CTETRA     14300       1     481     590     172     173
CTETRA     14301       1    3165    2325    2324     590
CTETRA     14302       1    1751    1752    1766     354
CTETRA     14303       1    2887     355    1238     353
CTETRA     14304       1    1751    1766     861     354
CTETRA     14305       1    2965    2966     207    1076
CTETRA     14306       1    1469    1002     956     592
CTETRA     14307       1    1561       8     917     231
CTETRA     14308       1    3140    1559     956    1002
CTETRA     14309       1    1559    1562    1062    1002
CTETRA     14310       1    3364    3116    1710     872
CTETRA     14311       1    3769    1382    3770    2598
CTETRA     14312       1    3020    1165    3021     569
CTETRA     14313       1    1562    1563    1062    1002
CTETRA     14314       1    3140    3141    1562    1002
CTETRA     14315       1    1376    1377    1380      37
CTETRA     14316       1    3045    3046    1491     183
CTETRA     14317       1    3140     956    1469    1002
CTETRA     14318       1    3162    3163    1581      87
CTETRA     14319       1    3849    2607    2170    2609
CTETRA     14320       1    2607    2609    2608     531
CTETRA     14321       1    2819    2855    1108     839
CTETRA     14322       1    2638     219     213     218
CTETRA     14323       1    3559    3560    2340     509
CTETRA     14324       1    3811     959    3812    1141
CTETRA     14325       1     290     288    1140     289
CTETRA     14326       1    3112    3113    1436     616
CTETRA     14327       1    2159    2162     869     839
CTETRA     14328       1    2685    2692    2695     732
CTETRA     14329       1    2994    3603    2995     907
CTETRA     14330       1    3111    1439    3964     700
CTETRA     14331       1    3761    2684    2611     618
CTETRA     14332       1     841     699     499     785
CTETRA     14333       1    1440     616     431     700
CTETRA     14334       1    1287     936    2351     694
CTETRA     14335       1    2838     683    1050     220
CTETRA     14336       1    3761    3762    2684     618
CTETRA     14337       1    2647    2650    2649     976
CTETRA     14338       1    2647    1108     212     976
CTETRA     14339       1    2611    2612     615     620
CTETRA     14340       1     840    1108     869     839
CTETRA     14341       1    1427    1431    1430     621
CTETRA     14342       1    3801    1427    1430     621
CTETRA     14343       1    2222    2223    2226     525
CTETRA     14344       1    2161    2164    2640     532
CTETRA     14345       1    3821    2220    3822    2700
CTETRA     14346       1    3845    2158    2161     869
CTETRA     14347       1    2213    2217    2216     526
CTETRA     14348       1    2212    2213    2216     167
CTETRA     14349       1    2760    2792    2791    1032
CTETRA     14350       1    2787    2788    2803     958
CTETRA     14351       1    3129    3130    1651    1048
CTETRA     14352       1    3845    2161    2640     869
CTETRA     14353       1    2785    1032    2791    1034
CTETRA     14354       1    2197    2796    2757     650
CTETRA     14355       1    2197    2198    2201     650
CTETRA     14356       1    2369     689    2372    1102
CTETRA     14357       1    3928    2790    2206    2810
CTETRA     14358       1    2707    1032    2715     442
CTETRA     14359       1    2794     651     864     650
CTETRA     14360       1     306     653     307     179
CTETRA     14361       1      76      87     281      77
CTETRA     14362       1    3502     380     478       2
CTETRA     14363       1    2369     691     689    1102
CTETRA     14364       1    3161      55    1580       1
CTETRA     14365       1    3161    2313      55       1
CTETRA     14366       1    3162    2313    2314      55
CTETRA     14367       1    1391    1034     442     624
CTETRA     14368       1    3256      78    3257      53
CTETRA     14369       1    3406    3955     632     633
CTETRA     14370       1    3162      55    2314      64
CTETRA     14371       1    3919    2233    3955    2753
CTETRA     14372       1    3932    3933    2194    2757
CTETRA     14373       1    2759    2760    2876    1066
CTETRA     14374       1    3256      76      46      78
CTETRA     14375       1     786     857     855     788
CTETRA     14376       1    2786    2792    2787    1065
CTETRA     14377       1    1613     204     737     738
CTETRA     14378       1     197    1035     646     860
CTETRA     14379       1    3063    3969    1508     736
CTETRA     14380       1     861     855     862     860
CTETRA     14381       1    3273    2885    3965     866
CTETRA     14382       1    3594    1826    1524     208
CTETRA     14383       1    3273    1615    1616     866
CTETRA     14384       1    3891    3892    1355    2826
CTETRA     14385       1    3064    1523    3970     572
CTETRA     14386       1     354     353     348    1077
CTETRA     14387       1     866     729     736     863
CTETRA     14388       1    2709    1068     953    1214
CTETRA     14389       1    3935    2185    2188    2871
CTETRA     14390       1    2188    2872    2871    1030
CTETRA     14391       1    2728    2729    2733     651
CTETRA     14392       1    3273    2925    1615     866
CTETRA     14393       1    2932    1261    1257     196
CTETRA     14394       1    1267     641     204     571
CTETRA     14395       1    1613     204    1614     737
CTETRA     14396       1    1614     737     204     646
CTETRA     14397       1    3295    2931    2930     195
CTETRA     14398       1    2966    1080     207    1076
CTETRA     14399       1    1240     736     866     729
CTETRA     14400       1    3402    1620    3403     259
CTETRA     14401       1    3274    1615    2925     646
CTETRA     14402       1    3274    1614    1615     646
CTETRA     14403       1    2543     349    1210     350
CTETRA     14404       1    1785    1786     755     574
CTETRA     14405       1    3644     160     465    1208
CTETRA     14406       1     583     659     584     757
CTETRA     14407       1    3045    3377    3046     903
CTETRA     14408       1    3306    2950    2949    1591
CTETRA     14409       1     357     349     645     360
CTETRA     14410       1     950     796     654     797
CTETRA     14411       1    1801    1802    1816     662
CTETRA     14412       1    1800    1801    1815     669
CTETRA     14413       1    2891     391     346     262
CTETRA     14414       1    3072    1246    1252    1031
CTETRA     14415       1    2671    2719    2722    1205
CTETRA     14416       1    3054    1498    1495      18
CTETRA     14417       1    2802     306    2805    1093
CTETRA     14418       1    1415    1419    1418    1205
CTETRA     14419       1    3973    3109    1298    1101
CTETRA     14420       1    2489     961    1011    1010
CTETRA     14421       1    2951    1245    1251     665
CTETRA     14422       1    2952     664     665     666
CTETRA     14423       1    3111     529     698     530
CTETRA     14424       1    2670    2671    2722    1205
CTETRA     14425       1    3457    3962    3458     975
CTETRA     14426       1    1439    1440     395     700
CTETRA     14427       1    2698     834     835     923
CTETRA     14428       1    1422    1426    1425     831
CTETRA     14429       1      30      31     711     639
CTETRA     14430       1    1416    1420    1419     415
CTETRA     14431       1    3247    3248      70      71
CTETRA     14432       1    3119    1379    1384      25
CTETRA     14433       1    1561     980       8     231
CTETRA     14434       1    3310    3998    3449     719
CTETRA     14435       1     764     715     827     767
CTETRA     14436       1    1640     719    1641     608
CTETRA     14437       1    1720     413     503     372
CTETRA     14438       1    3838    2137    2140    2646
CTETRA     14439       1    1025    1061     548     275
CTETRA     14440       1    3014    3687    3688     319
CTETRA     14441       1    3820    2226    2223     525
CTETRA     14442       1    3026    3366    3027     214
CTETRA     14443       1     957      52     315     374
CTETRA     14444       1    3859     968    3543     966
CTETRA     14445       1    1715     591     589     614
CTETRA     14446       1    3859    1734    1732     968
CTETRA     14447       1      15       9     362      11
CTETRA     14448       1    3693    2587    3694     524
CTETRA     14449       1    3114    3604    1098     694
CTETRA     14450       1    3248    3249      70      71
CTETRA     14451       1     927     749     711     506
CTETRA     14452       1    3501    3809    3808     380
CTETRA     14453       1     271     288     272     273
CTETRA     14454       1    3877    3878    2841     684
CTETRA     14455       1     917       8      70     153
CTETRA     14456       1    1563    1062    1002     226
CTETRA     14457       1       8      71      70      10
CTETRA     14458       1    3049    1238    1237     617
CTETRA     14459       1    1487    1105    1488     188
CTETRA     14460       1    3476     802     793     603
CTETRA     14461       1    3337    1633     793     376
CTETRA     14462       1    2951    1251     667     665
CTETRA     14463       1    2947    1086    1083    1087
CTETRA     14464       1    3109     659    3110    1100
CTETRA     14465       1    1679    1686    1685     901
CTETRA     14466       1    3006    3361    3007     151
CTETRA     14467       1    1910    1925    1037     746
CTETRA     14468       1    1895    1896    1910     742
CTETRA     14469       1    1927     555     554    1055
CTETRA     14470       1    3580    3581    1975     141
CTETRA     14471       1    3139    1480     956     566
CTETRA     14472       1    1293    1294    1303    1162
CTETRA     14473       1    3735    1293    2545    1162
CTETRA     14474       1    1293    1295    1294    1162
CTETRA     14475       1    1449     317    1047    1048
CTETRA     14476       1     406     397     399     394
CTETRA     14477       1    1062     364     956     152
CTETRA     14478       1    2452     105    1023     471
CTETRA     14479       1    2385     962     264     266
CTETRA     14480       1    3250    3251     364     146
CTETRA     14481       1    1566     364    1025     566
CTETRA     14482       1    1801    1802     662     585
CTETRA     14483       1    1559     364    1566     956
CTETRA     14484       1    3127    1444    3128     317
CTETRA     14485       1    3675    3676    1311    2422
CTETRA     14486       1     853     317     314     223
CTETRA     14487       1    3891    1358    2833     782
CTETRA     14488       1    3661    1326    1325    2399
CTETRA     14489       1    1651     106    1064    1040
CTETRA     14490       1    2385    2412     264     962
CTETRA     14491       1    3249    3250     364      71
CTETRA     14492       1    3661    3662    1326    2399
CTETRA     14493       1     107     225     152     384
CTETRA     14494       1    1784    1785    1799     755
CTETRA     14495       1     231     227     226     217
CTETRA     14496       1    3189    1745    1744    1497
CTETRA     14497       1    2495     397    1164     974
CTETRA     14498       1    2412     459    2413     264
CTETRA     14499       1    1373    2748    2743     404
CTETRA     14500       1    3886    3887    1370    2743
CTETRA     14501       1    3143    1561    1560     231
CTETRA     14502       1    3247     917       8      70
CTETRA     14503       1    3247    3248    1563      70
CTETRA     14504       1    3142    1560     917     231
CTETRA     14505       1    1376    1379    2747      37
CTETRA     14506       1    3306    2951    2950    1594
CTETRA     14507       1      31     718      25     707
CTETRA     14508       1    3769    3979    3117    3814
CTETRA     14509       1    1759    1760    1774     774
CTETRA     14510       1    2750    1201     404      37
CTETRA     14511       1     150      13     155      14
CTETRA     14512       1       8     227      13      14
CTETRA     14513       1    1338    1342    1341     830
CTETRA     14514       1    2706    2716    2707    1032
CTETRA     14515       1     423     398     426     425
CTETRA     14516       1    3357    1689    1691      99
CTETRA     14517       1    3132    1453    1442     387
CTETRA     14518       1    2702     636     734     923
CTETRA     14519       1    3377    1690    1688     903
CTETRA     14520       1    2994    2995    1098     907
CTETRA     14521       1    1480     956     566     569
CTETRA     14522       1     432     396     877     394
CTETRA     14523       1    3916    1438    1435    2884
CTETRA     14524       1    1760    1761    1013    1014
CTETRA     14525       1    3294    3295    2930     204
CTETRA     14526       1    3914    1432    1429     634
CTETRA     14527       1    2994    3604    3603     694
CTETRA     14528       1    3252    3253     145     146
CTETRA     14529       1     636     658     621     732
CTETRA     14530       1    3127    1654    1445     314
CTETRA     14531       1    3033    3369    3370    1131
CTETRA     14532       1    3275    1613    1614    1035
CTETRA     14533       1    2642    2644    2648     954
CTETRA     14534       1    2147    2150     880    1158
CTETRA     14535       1    3142    1472     231     226
CTETRA     14536       1    2622    1110     955     952
CTETRA     14537       1       8     231     980     227
CTETRA     14538       1    3026    1470    1476     214
CTETRA     14539       1    3143    3144    1561     980
CTETRA     14540       1    3245       8    1561     980
CTETRA     14541       1    2623    1110    2646     256
CTETRA     14542       1    3142    1560    1563     917
CTETRA     14543       1    3027    1472    1470     214
CTETRA     14544       1    2150    2151    2154     311
CTETRA     14545       1    3944    2859    2151    1158
CTETRA     14546       1    2145    2858    2148    1157
CTETRA     14547       1    3944    2151    2148    1158
CTETRA     14548       1    3043    1481     371    1088
CTETRA     14549       1    3243     362     510     450
CTETRA     14550       1    2002     480    2003     135
CTETRA     14551       1    3243    3244     362      43
CTETRA     14552       1    2533     264    2534     962
CTETRA     14553       1    1474     980    1131     309
CTETRA     14554       1    3144    1467    3145     308
CTETRA     14555       1    3146     510    1484     450
CTETRA     14556       1    1824    1840    1839     773
CTETRA     14557       1    3245    1557     362     980
CTETRA     14558       1    1557    1569     362     308
CTETRA     14559       1    3188    3189    1744    1497
CTETRA     14560       1    3184    1740    1739    1502
CTETRA     14561       1    1758    1759    1773     774
CTETRA     14562       1     152      10     363      14
CTETRA     14563       1    1744    1759    1758    1059
CTETRA     14564       1    2733     657    2738    1049
CTETRA     14565       1    3286    2904    2903     577
CTETRA     14566       1    1758    1773     581     774
CTETRA     14567       1    3187    3188    1743    1496
CTETRA     14568       1    1743    1758    1757      50
CTETRA     14569       1    3244    3245     362      43
CTETRA     14570       1    1698     239    1170     234
CTETRA     14571       1     883      98     884     232
CTETRA     14572       1    1740    1495    1741      18
CTETRA     14573       1    1848    1863    1862    1067
CTETRA     14574       1    3293    2927    2926     641
CTETRA     14575       1     190     827     767     501
CTETRA     14576       1    2926    2927    1265     641
CTETRA     14577       1    3059    1505    1493    1014
CTETRA     14578       1    2912    1233    1217     997
CTETRA     14579       1    1643     766     767     608
CTETRA     14580       1     601     336     597     165
CTETRA     14581       1    3082    2260    3083    1054
CTETRA     14582       1    3016     427    3689     397
CTETRA     14583       1    3689     397     427    1164
CTETRA     14584       1    3018     570     567     393
CTETRA     14585       1    1458     884      98     232
CTETRA     14586       1    3222    1842    3223    1533
CTETRA     14587       1    3222    1843    1842    1533
CTETRA     14588       1    3145    3146    1569     510
CTETRA     14589       1    3573    3987    1539    1540
CTETRA     14590       1    2870    1103    2874    1029
CTETRA     14591       1    1629    1630     881    1147
CTETRA     14592       1    3147    1570    1568     452
CTETRA     14593       1    3037    1483     647    1132
CTETRA     14594       1    2878    2879    2881     953
CTETRA     14595       1    1699     546    1700     887
CTETRA     14596       1     230     231     222     217
CTETRA     14597       1    3500     289       2       4
CTETRA     14598       1    2219     525    2222     913
CTETRA     14599       1    3117    1383    1382     409
CTETRA     14600       1    3116     592     874     872
CTETRA     14601       1     182     132     131     133
CTETRA     14602       1    3302    2943    1171     127
CTETRA     14603       1    3284    2908    2907    1597
CTETRA     14604       1    3302    1598    2944     127
CTETRA     14605       1    3278    2917    2916    1607
CTETRA     14606       1    2918    2919    1235    1118
CTETRA     14607       1    3277    2920    2919    1611
CTETRA     14608       1     453     451    1088     118
CTETRA     14609       1    2922    2923    1241    1035
CTETRA     14610       1    3045     451     903     183
CTETRA     14611       1    2615    2626    2624     953
CTETRA     14612       1    3241      15      19      16
CTETRA     14613       1    3401    1621    1620     259
CTETRA     14614       1    1062     364     152     153
CTETRA     14615       1    3243     362    1569     510
CTETRA     14616       1    3270    2889    2888    1621
CTETRA     14617       1     362     980     308     375
CTETRA     14618       1    1761    1762     389      61
CTETRA     14619       1    3063     822     736     712
CTETRA     14620       1     862     736     729     863
CTETRA     14621       1    3242      43      15      16
CTETRA     14622       1    3324    1626    1624     944
CTETRA     14623       1      27      28     369    1147
CTETRA     14624       1    3370    1703    1702    1131
CTETRA     14625       1     939    1208     287    1012
CTETRA     14626       1    3572    4001    2333     412
CTETRA     14627       1    3117    3495    3400     365
CTETRA     14628       1    3863     267    3537     515
CTETRA     14629       1    2078    2083    2079     979
CTETRA     14630       1    1201     586    1195     402
CTETRA     14631       1    3571    2331     411     412
CTETRA     14632       1    3398    1718    1721     706
CTETRA     14633       1    3648     361    2347     357
CTETRA     14634       1    3729    3730      38    1151
CTETRA     14635       1    2793    1041    1194    1066
CTETRA     14636       1    3639    2084    2083     320
CTETRA     14637       1    3639    2083    2346     320
CTETRA     14638       1    2347    1137     357     320
CTETRA     14639       1    1368    1369    1372    1004
CTETRA     14640       1    1935    1543    1550     502
CTETRA     14641       1    1934    1935    1550     502
CTETRA     14642       1    1778    1779    1794    1136
CTETRA     14643       1    1362    1365    1005    1004
CTETRA     14644       1    3515    3516    2303     435
CTETRA     14645       1    3152    3153    1584     568
CTETRA     14646       1    3151    3152    1586     568
CTETRA     14647       1    1357    2631     812     815
CTETRA     14648       1    1360    2636    2619    2669
CTETRA     14649       1    2843     812    2848    1092
CTETRA     14650       1    3187    1496    1743    1499
CTETRA     14651       1    1349    1353    1352     814
CTETRA     14652       1    1343    1347    1346    1027
CTETRA     14653       1    3894    1349    2815     814
CTETRA     14654       1    1757    1758    1772     581
CTETRA     14655       1    1223    1059    1009     775
CTETRA     14656       1    1769     904     759     950
CTETRA     14657       1    2960    1244    1255      39
CTETRA     14658       1    2845    2846    2881    1110
CTETRA     14659       1    3894    2815    2865     814
CTETRA     14660       1    2915      21      23      61
CTETRA     14661       1    2925     866     197     646
CTETRA     14662       1    1783    1784    1798      41
CTETRA     14663       1    2923    1239    1241     197
CTETRA     14664       1    1817    1818    1832    1107
CTETRA     14665       1       5       1       3       4
CTETRA     14666       1    3532     410    4001     705
CTETRA     14667       1     409      25     718     707
CTETRA     14668       1    1757     581    1772     916
CTETRA     14669       1    1846    1861    1860    1060
CTETRA     14670       1    3220    1844    3221    1534
CTETRA     14671       1     959     409     639       6
CTETRA     14672       1    3099    2264    2283     122
CTETRA     14673       1    3158    2311    2310     366
CTETRA     14674       1    3159       5    1159     366
CTETRA     14675       1    1941    1541     122    1055
CTETRA     14676       1     609     608     607     611
CTETRA     14677       1    2850     211     954    1092
CTETRA     14678       1    1867    1883    1882     175
CTETRA     14679       1    3211    1535    1854    1538
CTETRA     14680       1    3259    3260    1575     304
CTETRA     14681       1    1852    1853    1868     177
CTETRA     14682       1    3474     802    2276     799
CTETRA     14683       1    3089    2241    3090     178
CTETRA     14684       1    1052    1136     859     737
CTETRA     14685       1    2923    1614     197    1035
CTETRA     14686       1     862     729     736     712
CTETRA     14687       1    3588     729    3589     712
CTETRA     14688       1    2271      48    2275     373
CTETRA     14689       1    1965    1980    1979      73
CTETRA     14690       1    1963    1978    1977      66
CTETRA     14691       1    2845    2849    2851     955
CTETRA     14692       1    2230    2753    2751     728
CTETRA     14693       1    3576    1886    3577      27
CTETRA     14694       1    3463    2265     638     300
CTETRA     14695       1     429    1142     430    1057
CTETRA     14696       1    3437    3767    3766     630
CTETRA     14697       1    2011    2027    2026     101
CTETRA     14698       1    3820    2223    2700     525
CTETRA     14699       1    3002     876     385     671
CTETRA     14700       1    2049    2050    2065     457
CTETRA     14701       1    2034    2050    2049     456
CTETRA     14702       1    3575     516    1871     369
CTETRA     14703       1    1622    1625    1626     905
CTETRA     14704       1    1084    1086    1085    1107
CTETRA     14705       1    2950    1251    1252     667
CTETRA     14706       1    1804    1805    1200     128
CTETRA     14707       1    1759     774    1059     775
CTETRA     14708       1    3445    3446     765     767
CTETRA     14709       1    1950     113     521      73
CTETRA     14710       1    1955    1970    1969     469
CTETRA     14711       1    3083    1054    2263     770
CTETRA     14712       1    3083    2252    3084     770
CTETRA     14713       1    3244    1956    1955      43
CTETRA     14714       1    2759    1103    1041    1066
CTETRA     14715       1    3989    1960    3240      68
CTETRA     14716       1    2077    2089    2088    1096
CTETRA     14717       1     202     251     203     564
CTETRA     14718       1    2706    2707    2725    1032
CTETRA     14719       1    3446    3447    2259     765
CTETRA     14720       1    2883     400     977     395
CTETRA     14721       1    1861     769    1876    1060
CTETRA     14722       1    2624     952     930     953
CTETRA     14723       1     210     772     571     773
CTETRA     14724       1    2090    2092    2091     422
CTETRA     14725       1    3071    1248    1107    1104
CTETRA     14726       1    3699    2090    3700    2589
CTETRA     14727       1    3944    2858    2859    1158
CTETRA     14728       1    3074    1245    1256     665
CTETRA     14729       1    1819    1834    1833    1104
CTETRA     14730       1    1818    1084     998    1104
CTETRA     14731       1    1803    1818    1084     998
CTETRA     14732       1     954     256     880    1158
CTETRA     14733       1    2949    2950    1252     667
CTETRA     14734       1    3946    3947    2157    2854
CTETRA     14735       1    2147    2148    2151    1158
CTETRA     14736       1    1861    1876    1875    1060
CTETRA     14737       1    3944    2148    2858    1158
CTETRA     14738       1    2202    2737    2205     657
CTETRA     14739       1    2155     869    2649     976
CTETRA     14740       1    3870    3954    3882    2176
CTETRA     14741       1    2788     651    2794     307
CTETRA     14742       1    3881    2756    2754     836
CTETRA     14743       1    2789    2797    2790     179
CTETRA     14744       1    3881    3882    2756     836
CTETRA     14745       1    2806    2810     306     179
CTETRA     14746       1    2205    2737     307     657
CTETRA     14747       1     651     307     657     650
CTETRA     14748       1    2789    2795    2797     179
CTETRA     14749       1     651     657    1041     864
CTETRA     14750       1    1041     657    1049     864
CTETRA     14751       1    2733    1041     651     657
CTETRA     14752       1    3931    2197    2200    2796
CTETRA     14753       1    3337    1632    1633     376
CTETRA     14754       1    3315    3418    3417    1635
CTETRA     14755       1    2715    1032    2716     624
CTETRA     14756       1    3416    3417    2242    1183
CTETRA     14757       1    3314    3315    3416    1636
CTETRA     14758       1    2718    1193    1156     417
CTETRA     14759       1     894    1190     905    1147
CTETRA     14760       1    1883    1884    1899    1112
CTETRA     14761       1    2789    2806     306     179
CTETRA     14762       1    2681     835     731    1093
CTETRA     14763       1    2204    2205    2208     653
CTETRA     14764       1    2726    1065    1156    1194
CTETRA     14765       1    1823    1839    1838     946
CTETRA     14766       1    1231    1118    1242     821
CTETRA     14767       1    3094    3095    1551     798
CTETRA     14768       1    2251     867    1192     868
CTETRA     14769       1     805     943     800     803
CTETRA     14770       1    3479    2269    2270     557
CTETRA     14771       1    1551     798     603     604
CTETRA     14772       1    1900    1915     805     943
CTETRA     14773       1    3070    3071    1512    1104
CTETRA     14774       1    3339    3473     881     799
CTETRA     14775       1    3446    2259    2258     765
CTETRA     14776       1    3420    3421    2244     228
CTETRA     14777       1    3976    3113    3444    3759
CTETRA     14778       1    1845    1060    1860    1166
CTETRA     14779       1    2611    2684    2694     620
CTETRA     14780       1    3418    1635    3419     740
CTETRA     14781       1    3443    3444    2252     792
CTETRA     14782       1    3442    3761    3760     200
CTETRA     14783       1      79     993     373     482
CTETRA     14784       1    3817    2235    2232    2605
CTETRA     14785       1    2224    2225    2228     763
CTETRA     14786       1    3266    1177    1119     910
CTETRA     14787       1    3861    3541    3540    1007
CTETRA     14788       1    3922    2770    2812     763
CTETRA     14789       1    3531     849    2307     322
CTETRA     14790       1    3727    2549    3728    1211
CTETRA     14791       1    1186     912    1053     763
CTETRA     14792       1    2343     460    1137     458
CTETRA     14793       1    2542    2544    2543     350
CTETRA     14794       1    3818    2229    2603    1188
CTETRA     14795       1    3925    2218    2813    2814
CTETRA     14796       1    1943    1944    1554     605
CTETRA     14797       1    1785    1800    1799     755
CTETRA     14798       1    1819    1820    1834     996
CTETRA     14799       1    3476    2266    2277     603
CTETRA     14800       1    3826    2208    2205    2675
CTETRA     14801       1     651     657     864     650
CTETRA     14802       1    2388     842    2394     266
CTETRA     14803       1    3660    3661    1325    2399
CTETRA     14804       1    1321    2527    1327     845
CTETRA     14805       1    3337    1633    3478     793
CTETRA     14806       1    3842    2149    2152    2651
CTETRA     14807       1    3581    3582    1990     141
CTETRA     14808       1    3708    2117    3709    2511
CTETRA     14809       1    3622    3623    2113    2365
CTETRA     14810       1    1971    1986    1985      74
CTETRA     14811       1    1973    1974    1988     140
CTETRA     14812       1    1950    1964     113      73
CTETRA     14813       1    3707    2114    3708    2516
CTETRA     14814       1    3624    2115    2379    2380
CTETRA     14815       1    2546    2547    2548    1153
CTETRA     14816       1    2402    1154     466     460
CTETRA     14817       1    2384    2412    2413     264
CTETRA     14818       1    2078    2079    2088     979
CTETRA     14819       1    2403    2404    2412     458
CTETRA     14820       1     160     465    1208     161
CTETRA     14821       1    2403    2412    2409     461
CTETRA     14822       1    2401    2402    2409    1154
CTETRA     14823       1    2015    2031    2030     735
CTETRA     14824       1    1295    2488    1296     961
CTETRA     14825       1     554     555     556     713
CTETRA     14826       1    2241    1135    1183     178
CTETRA     14827       1    1851    1537    1852      90
CTETRA     14828       1    2355    2356     939     287
CTETRA     14829       1    1882    1883    1897    1112
CTETRA     14830       1    3212    1853    3213    1536
CTETRA     14831       1    2686    2690    2687     734
CTETRA     14832       1    1350    1351    1354     815
CTETRA     14833       1    3481    3482    2267     704
CTETRA     14834       1    1589    1596    1595     129
CTETRA     14835       1    1940    1941    1541     122
CTETRA     14836       1    3481    2267    2269     556
CTETRA     14837       1    3760    3761    2611     615
CTETRA     14838       1    3440    3762    3441     201
CTETRA     14839       1    3960    2742    2769    1142
CTETRA     14840       1    2265     638     300     511
CTETRA     14841       1     554     713     882     605
CTETRA     14842       1    1888    1903    1902     888
CTETRA     14843       1    2798    2801    2804    1144
CTETRA     14844       1    1886    1887    1901     889
CTETRA     14845       1    2245     893    2247    1123
CTETRA     14846       1    1418    1422    1421    1167
CTETRA     14847       1    3324    3432    3431     944
CTETRA     14848       1    3789    1394    3790    2715
CTETRA     14849       1    1836    1521    1509     995
CTETRA     14850       1     764    1060     769     785
CTETRA     14851       1    3881     991    3882     836
CTETRA     14852       1    3432    3433     893     944
CTETRA     14853       1    1848    1528     811    1067
CTETRA     14854       1    2517    2518    2527     473
CTETRA     14855       1    3787    2618    1388    2714
CTETRA     14856       1    1388     829    1389     624
CTETRA     14857       1    3785    1334    3786    2632
CTETRA     14858       1    1385    1386    1389     829
CTETRA     14859       1    1385    1388    2618     829
CTETRA     14860       1    2617    2618    2716     624
CTETRA     14861       1    2707    2716    2715    1032
CTETRA     14862       1    3500    3809    3501     380
CTETRA     14863       1    3930    3931    2200    2795
CTETRA     14864       1     826     190     527     501
CTETRA     14865       1    2727    1156    1193     958
CTETRA     14866       1    2681    2698    2697     834
CTETRA     14867       1    2787    1156    1065    1194
CTETRA     14868       1    2693    2695     636     621
CTETRA     14869       1    2213     526    2216     167
CTETRA     14870       1    1846    1847    1861     769
CTETRA     14871       1    2802    2806    2805     306
CTETRA     14872       1    2789    2790    2806     179
CTETRA     14873       1    2942    1249    1250    1171
CTETRA     14874       1    3202    1833    3203    1512
CTETRA     14875       1    3930    2200    2203    2795
CTETRA     14876       1    2679    2680    2699     653
CTETRA     14877       1    2205    2737    2675     307
CTETRA     14878       1    3203    1833    1834    1512
$*
$* PROPERTY CARDS
$*
$*  Property: PSOLID1
PSOLID         1       1       0                           SMECH
$*
$* MATERIAL CARDS
$*
$*  Material: AISI_SS_304-Annealed::fem2::[1]
MAT1           11.9000+8        0.3000007.9000-61.6600-5
$*
$* LOAD AND CONSTRAINT CARDS
$*
$*  Constraint: Fixed(1)
SPC            1    1589  123456  0.0000
SPC            1    1590  123456  0.0000
SPC            1    1591  123456  0.0000
SPC            1    1592  123456  0.0000
SPC            1    1593  123456  0.0000
SPC            1    1594  123456  0.0000
SPC            1    1595  123456  0.0000
SPC            1    1596  123456  0.0000
SPC            1    1597  123456  0.0000
SPC            1    1598  123456  0.0000
SPC            1    1599  123456  0.0000
SPC            1    1600  123456  0.0000
SPC            1    1601  123456  0.0000
SPC            1    1602  123456  0.0000
SPC            1    1603  123456  0.0000
SPC            1    1604  123456  0.0000
SPC            1    1605  123456  0.0000
SPC            1    1606  123456  0.0000
SPC            1    1607  123456  0.0000
SPC            1    1608  123456  0.0000
SPC            1    1609  123456  0.0000
SPC            1    1610  123456  0.0000
SPC            1    1611  123456  0.0000
SPC            1    1612  123456  0.0000
SPC            1    1613  123456  0.0000
SPC            1    1614  123456  0.0000
SPC            1    1615  123456  0.0000
SPC            1    1616  123456  0.0000
SPC            1    1617  123456  0.0000
SPC            1    1618  123456  0.0000
SPC            1    1619  123456  0.0000
SPC            1    1620  123456  0.0000
SPC            1    1621  123456  0.0000
SPC            1    1622  123456  0.0000
SPC            1    1623  123456  0.0000
SPC            1    1624  123456  0.0000
SPC            1    1625  123456  0.0000
SPC            1    1626  123456  0.0000
SPC            1    1627  123456  0.0000
SPC            1    1628  123456  0.0000
SPC            1    1629  123456  0.0000
SPC            1    1630  123456  0.0000
SPC            1    1631  123456  0.0000
SPC            1    1632  123456  0.0000
SPC            1    1633  123456  0.0000
SPC            1    1634  123456  0.0000
SPC            1    1635  123456  0.0000
SPC            1    1636  123456  0.0000
SPC            1    1637  123456  0.0000
SPC            1    1638  123456  0.0000
SPC            1    1639  123456  0.0000
SPC            1    1640  123456  0.0000
SPC            1    1641  123456  0.0000
SPC            1    1642  123456  0.0000
SPC            1    1643  123456  0.0000
SPC            1    1644  123456  0.0000
SPC            1    1645  123456  0.0000
SPC            1    1646  123456  0.0000
SPC            1    3109  123456  0.0000
SPC            1    3110  123456  0.0000
SPC            1    3111  123456  0.0000
SPC            1    3112  123456  0.0000
SPC            1    3113  123456  0.0000
SPC            1    3270  123456  0.0000
SPC            1    3271  123456  0.0000
SPC            1    3272  123456  0.0000
SPC            1    3273  123456  0.0000
SPC            1    3274  123456  0.0000
SPC            1    3275  123456  0.0000
SPC            1    3276  123456  0.0000
SPC            1    3277  123456  0.0000
SPC            1    3278  123456  0.0000
SPC            1    3279  123456  0.0000
SPC            1    3280  123456  0.0000
SPC            1    3281  123456  0.0000
SPC            1    3282  123456  0.0000
SPC            1    3283  123456  0.0000
SPC            1    3284  123456  0.0000
SPC            1    3285  123456  0.0000
SPC            1    3286  123456  0.0000
SPC            1    3287  123456  0.0000
SPC            1    3288  123456  0.0000
SPC            1    3289  123456  0.0000
SPC            1    3290  123456  0.0000
SPC            1    3291  123456  0.0000
SPC            1    3292  123456  0.0000
SPC            1    3293  123456  0.0000
SPC            1    3294  123456  0.0000
SPC            1    3295  123456  0.0000
SPC            1    3296  123456  0.0000
SPC            1    3297  123456  0.0000
SPC            1    3298  123456  0.0000
SPC            1    3299  123456  0.0000
SPC            1    3300  123456  0.0000
SPC            1    3301  123456  0.0000
SPC            1    3302  123456  0.0000
SPC            1    3303  123456  0.0000
SPC            1    3304  123456  0.0000
SPC            1    3305  123456  0.0000
SPC            1    3306  123456  0.0000
SPC            1    3307  123456  0.0000
SPC            1    3308  123456  0.0000
SPC            1    3309  123456  0.0000
SPC            1    3310  123456  0.0000
SPC            1    3311  123456  0.0000
SPC            1    3312  123456  0.0000
SPC            1    3313  123456  0.0000
SPC            1    3314  123456  0.0000
SPC            1    3315  123456  0.0000
SPC            1    3316  123456  0.0000
SPC            1    3317  123456  0.0000
SPC            1    3318  123456  0.0000
SPC            1    3319  123456  0.0000
SPC            1    3320  123456  0.0000
SPC            1    3321  123456  0.0000
SPC            1    3322  123456  0.0000
SPC            1    3323  123456  0.0000
SPC            1    3324  123456  0.0000
SPC            1    3325  123456  0.0000
SPC            1    3326  123456  0.0000
SPC            1    3327  123456  0.0000
SPC            1    3328  123456  0.0000
SPC            1    3329  123456  0.0000
SPC            1    3330  123456  0.0000
SPC            1    3331  123456  0.0000
SPC            1    3332  123456  0.0000
SPC            1    3333  123456  0.0000
SPC            1    3334  123456  0.0000
SPC            1    3335  123456  0.0000
SPC            1    3336  123456  0.0000
SPC            1    3337  123456  0.0000
SPC            1    3338  123456  0.0000
SPC            1    3339  123456  0.0000
SPC            1    3340  123456  0.0000
SPC            1    3341  123456  0.0000
SPC            1    3342  123456  0.0000
SPC            1    3343  123456  0.0000
SPC            1    3344  123456  0.0000
SPC            1    3401  123456  0.0000
SPC            1    3402  123456  0.0000
SPC            1    3403  123456  0.0000
SPC            1    3404  123456  0.0000
SPC            1    3405  123456  0.0000
SPC            1    3406  123456  0.0000
SPC            1    3973  123456  0.0000
SPC            1    3974  123456  0.0000
SPC            1    3975  123456  0.0000
SPC            1    3976  123456  0.0000
SPC            1    3991  123456  0.0000
SPC            1    3992  123456  0.0000
SPC            1    3993  123456  0.0000
SPC            1    3994  123456  0.0000
$*  Load: Force(1)
FORCE          2    1946       0 3999.48  0.0000-1.00000  0.0000
FORCE          2    1947       0 3998.81  0.0000-1.00000  0.0000
FORCE          2    1948       0 4001.90  0.0000-1.00000  0.0000
FORCE          2    1949       0 4000.34  0.0000-1.00000  0.0000
FORCE          2    1950       0 3997.78  0.0000-1.00000  0.0000
FORCE          2    1951       0 4000.80  0.0000-1.00000  0.0000
FORCE          2    1952       0 4000.81  0.0000-1.00000  0.0000
FORCE          2    1953       0 3998.41  0.0000-1.00000  0.0000
FORCE          2    1954       0 4000.82  0.0000-1.00000  0.0000
FORCE          2    1955       0 4000.65  0.0000-1.00000  0.0000
FORCE          2    1956       0 3997.79  0.0000-1.00000  0.0000
FORCE          2    1957       0 4000.14  0.0000-1.00000  0.0000
FORCE          2    1958       0 4001.90  0.0000-1.00000  0.0000
FORCE          2    1959       0 3999.07  0.0000-1.00000  0.0000
FORCE          2    1960       0 3999.49  0.0000-1.00000  0.0000
FORCE          2    1961       0 3999.49  0.0000-1.00000  0.0000
FORCE          2    1962       0 3998.62  0.0000-1.00000  0.0000
FORCE          2    1963       0 4001.89  0.0000-1.00000  0.0000
FORCE          2    1964       0 4000.49  0.0000-1.00000  0.0000
FORCE          2    1965       0 3997.78  0.0000-1.00000  0.0000
FORCE          2    1966       0 4000.90  0.0000-1.00000  0.0000
FORCE          2    1967       0 4000.82  0.0000-1.00000  0.0000
FORCE          2    1968       0 3998.40  0.0000-1.00000  0.0000
FORCE          2    1969       0 4000.81  0.0000-1.00000  0.0000
FORCE          2    1970       0 4000.58  0.0000-1.00000  0.0000
FORCE          2    1971       0 3997.79  0.0000-1.00000  0.0000
FORCE          2    1972       0 3999.97  0.0000-1.00000  0.0000
FORCE          2    1973       0 4001.89  0.0000-1.00000  0.0000
FORCE          2    1974       0 3999.27  0.0000-1.00000  0.0000
FORCE          2    1975       0 3999.44  0.0000-1.00000  0.0000
FORCE          2    1976       0 3999.48  0.0000-1.00000  0.0000
FORCE          2    1977       0 3998.45  0.0000-1.00000  0.0000
FORCE          2    1978       0 4002.01  0.0000-1.00000  0.0000
FORCE          2    1979       0 4000.52  0.0000-1.00000  0.0000
FORCE          2    1980       0 3997.77  0.0000-1.00000  0.0000
FORCE          2    1981       0 4001.01  0.0000-1.00000  0.0000
FORCE          2    1982       0 4000.79  0.0000-1.00000  0.0000
FORCE          2    1983       0 3998.41  0.0000-1.00000  0.0000
FORCE          2    1984       0 4000.70  0.0000-1.00000  0.0000
FORCE          2    1985       0 4000.65  0.0000-1.00000  0.0000
FORCE          2    1986       0 3997.78  0.0000-1.00000  0.0000
FORCE          2    1987       0 3999.84  0.0000-1.00000  0.0000
FORCE          2    1988       0 4668.87  0.0000-1.00000  0.0000
FORCE          2    1989       0 3998.53  0.0000-1.00000  0.0000
FORCE          2    1990       0 4000.26  0.0000-1.00000  0.0000
FORCE          2    1991       0 3999.47  0.0000-1.00000  0.0000
FORCE          2    1992       0 3998.49  0.0000-1.00000  0.0000
FORCE          2    1993       0 4002.23  0.0000-1.00000  0.0000
FORCE          2    1994       0 4000.28  0.0000-1.00000  0.0000
FORCE          2    1995       0 3997.77  0.0000-1.00000  0.0000
FORCE          2    1996       0 4001.05  0.0000-1.00000  0.0000
FORCE          2    1997       0 4667.09  0.0000-1.00000  0.0000
FORCE          2    1998       0 3998.27  0.0000-1.00000  0.0000
FORCE          2    1999       0 4001.56  0.0000-1.00000  0.0000
FORCE          2    2000       0 4000.04  0.0000-1.00000  0.0000
FORCE          2    2001       0 3997.53  0.0000-1.00000  0.0000
FORCE          2    2002       0 4001.03  0.0000-1.00000  0.0000
FORCE          2    2003       0 3334.73  0.0000-1.00000  0.0000
FORCE          2    2004       0 3999.05  0.0000-1.00000  0.0000
FORCE          2    2005       0 3999.50  0.0000-1.00000  0.0000
FORCE          2    2006       0 3999.42  0.0000-1.00000  0.0000
FORCE          2    2007       0 4665.81  0.0000-1.00000  0.0000
FORCE          2    2008       0 4002.42  0.0000-1.00000  0.0000
FORCE          2    2009       0 3998.97  0.0000-1.00000  0.0000
FORCE          2    2010       0 3998.02  0.0000-1.00000  0.0000
FORCE          2    2011       0 4001.58  0.0000-1.00000  0.0000
FORCE          2    2012       0 3333.68  0.0000-1.00000  0.0000
FORCE          2    2013       0 3998.11  0.0000-1.00000  0.0000
FORCE          2    2014       0 4000.85  0.0000-1.00000  0.0000
FORCE          2    2015       0 4000.96  0.0000-1.00000  0.0000
FORCE          2    2016       0 3997.78  0.0000-1.00000  0.0000
FORCE          2    2017       0 4000.46  0.0000-1.00000  0.0000
FORCE          2    2018       0 4001.83  0.0000-1.00000  0.0000
FORCE          2    2019       0 3998.70  0.0000-1.00000  0.0000
FORCE          2    2020       0 3999.45  0.0000-1.00000  0.0000
FORCE          2    2021       0 3998.67  0.0000-1.00000  0.0000
FORCE          2    2022       0 3333.03  0.0000-1.00000  0.0000
FORCE          2    2023       0 4002.00  0.0000-1.00000  0.0000
FORCE          2    2024       0 3999.85  0.0000-1.00000  0.0000
FORCE          2    2025       0 3997.78  0.0000-1.00000  0.0000
FORCE          2    2026       0 4000.58  0.0000-1.00000  0.0000
FORCE          2    2027       0 4000.84  0.0000-1.00000  0.0000
FORCE          2    2028       0 3998.38  0.0000-1.00000  0.0000
FORCE          2    2029       0 4000.72  0.0000-1.00000  0.0000
FORCE          2    2030       0 4001.04  0.0000-1.00000  0.0000
FORCE          2    2031       0 3997.78  0.0000-1.00000  0.0000
FORCE          2    2032       0 4000.52  0.0000-1.00000  0.0000
FORCE          2    2033       0 4001.99  0.0000-1.00000  0.0000
FORCE          2    2034       0 3998.49  0.0000-1.00000  0.0000
FORCE          2    2035       0 3999.43  0.0000-1.00000  0.0000
FORCE          2    2036       0 3999.49  0.0000-1.00000  0.0000
FORCE          2    2037       0 3999.15  0.0000-1.00000  0.0000
FORCE          2    2038       0 4002.08  0.0000-1.00000  0.0000
FORCE          2    2039       0 3999.89  0.0000-1.00000  0.0000
FORCE          2    2040       0 3997.77  0.0000-1.00000  0.0000
FORCE          2    2041       0 4000.64  0.0000-1.00000  0.0000
FORCE          2    2042       0 4000.70  0.0000-1.00000  0.0000
FORCE          2    2043       0 3998.53  0.0000-1.00000  0.0000
FORCE          2    2044       0 4000.68  0.0000-1.00000  0.0000
FORCE          2    2045       0 4000.97  0.0000-1.00000  0.0000
FORCE          2    2046       0 3997.78  0.0000-1.00000  0.0000
FORCE          2    2047       0 4000.39  0.0000-1.00000  0.0000
FORCE          2    2048       0 4002.08  0.0000-1.00000  0.0000
FORCE          2    2049       0 3998.56  0.0000-1.00000  0.0000
FORCE          2    2050       0 3999.43  0.0000-1.00000  0.0000
FORCE          2    2051       0 3999.43  0.0000-1.00000  0.0000
FORCE          2    2052       0 3999.02  0.0000-1.00000  0.0000
FORCE          2    2053       0 4002.07  0.0000-1.00000  0.0000
FORCE          2    2054       0 4000.06  0.0000-1.00000  0.0000
FORCE          2    2055       0 3997.77  0.0000-1.00000  0.0000
FORCE          2    2056       0 4000.72  0.0000-1.00000  0.0000
FORCE          2    2057       0 4000.69  0.0000-1.00000  0.0000
FORCE          2    2058       0 3998.52  0.0000-1.00000  0.0000
FORCE          2    2059       0 4000.70  0.0000-1.00000  0.0000
FORCE          2    2060       0 4000.85  0.0000-1.00000  0.0000
FORCE          2    2061       0 3997.78  0.0000-1.00000  0.0000
FORCE          2    2062       0 4000.25  0.0000-1.00000  0.0000
FORCE          2    2063       0 4002.07  0.0000-1.00000  0.0000
FORCE          2    2064       0 3998.75  0.0000-1.00000  0.0000
FORCE          2    2065       0 3999.44  0.0000-1.00000  0.0000
FORCE          2    3240       0 1999.35  0.0000-1.00000  0.0000
FORCE          2    3241       0 1999.78  0.0000-1.00000  0.0000
FORCE          2    3242       0 2001.19  0.0000-1.00000  0.0000
FORCE          2    3243       0 1999.59  0.0000-1.00000  0.0000
FORCE          2    3244       0 1999.00  0.0000-1.00000  0.0000
FORCE          2    3245       0 2000.74  0.0000-1.00000  0.0000
FORCE          2    3246       0 2000.02  0.0000-1.00000  0.0000
FORCE          2    3247       0 1999.21  0.0000-1.00000  0.0000
FORCE          2    3248       0 2000.78  0.0000-1.00000  0.0000
FORCE          2    3249       0 2000.00  0.0000-1.00000  0.0000
FORCE          2    3250       0 1998.77  0.0000-1.00000  0.0000
FORCE          2    3251       0 2000.65  0.0000-1.00000  0.0000
FORCE          2    3252       0 2000.75  0.0000-1.00000  0.0000
FORCE          2    3253       0 1999.15  0.0000-1.00000  0.0000
FORCE          2    3254       0 2000.13  0.0000-1.00000  0.0000
FORCE          2    3255       0 2000.10  0.0000-1.00000  0.0000
FORCE          2    3256       0 1999.17  0.0000-1.00000  0.0000
FORCE          2    3257       0 2000.81  0.0000-1.00000  0.0000
FORCE          2    3258       0 2000.59  0.0000-1.00000  0.0000
FORCE          2    3259       0 1998.78  0.0000-1.00000  0.0000
FORCE          2    3260       0 2000.00  0.0000-1.00000  0.0000
FORCE          2    3261       0 2000.74  0.0000-1.00000  0.0000
FORCE          2    3262       0 1999.25  0.0000-1.00000  0.0000
FORCE          2    3263       0 1999.98  0.0000-1.00000  0.0000
FORCE          2    3264       0 2000.78  0.0000-1.00000  0.0000
FORCE          2    3265       0 1999.00  0.0000-1.00000  0.0000
FORCE          2    3266       0 1999.58  0.0000-1.00000  0.0000
FORCE          2    3267       0 2001.24  0.0000-1.00000  0.0000
FORCE          2    3268       0 1999.72  0.0000-1.00000  0.0000
FORCE          2    3269       0 1999.33  0.0000-1.00000  0.0000
FORCE          2    3580       0 4001.75  0.0000-1.00000  0.0000
FORCE          2    3581       0 4001.79  0.0000-1.00000  0.0000
FORCE          2    3582       0 3334.94  0.0000-1.00000  0.0000
FORCE          2    3583       0 4002.03  0.0000-1.00000  0.0000
FORCE          2    3584       0 4002.07  0.0000-1.00000  0.0000
FORCE          2    3585       0 4668.92  0.0000-1.00000  0.0000
FORCE          2    3586       0 4001.80  0.0000-1.00000  0.0000
FORCE          2    3587       0 4001.80  0.0000-1.00000  0.0000
FORCE          2    3989       0 2000.88  0.0000-1.00000  0.0000
FORCE          2    3990       0 2000.91  0.0000-1.00000  0.0000
ENDDATA 6744e18c
